     Program PHONON v.6.0 (svn rev. 13079) starts on 14Jul2020 at 15:51: 3

     Reading data from directory:
     ./si.save

   Info: using nr1, nr2, nr3 values from input

[...]

     IMPORTANT: XC functional enforced from input :
     Exchange-correlation      = PBE ( 1  4  3  4 0 0)
     Any further DFT definition will be discarded
     Please, verify this is what you really want

     Check: negative/imaginary core charge=   -0.000001    0.000000

     Dynamical matrices for ( 4, 4, 4)  uniform grid of q-points
     (   8q-points):
       N         xq(1)         xq(2)         xq(3)
       1   0.000000000   0.000000000   0.000000000
       2  -0.250000000   0.250000000  -0.250000000
       3   0.500000000  -0.500000000   0.500000000
       4   0.000000000   0.500000000   0.000000000
       5   0.750000000  -0.250000000   0.750000000
       6   0.500000000   0.000000000   0.500000000
       7   0.000000000  -1.000000000   0.000000000
       8  -0.500000000  -1.000000000   0.000000000

     Calculation of q =    0.0000000   0.0000000   0.0000000

     bravais-lattice index     =            2
     lattice parameter (alat)  =      10.4109  a.u.
     unit-cell volume          =     282.1019 (a.u.)^3
     number of atoms/cell      =            2
     number of atomic types    =            1
     kinetic-energy cut-off    =      50.0000  Ry
     charge density cut-off    =     200.0000  Ry
     convergence threshold     =      1.0E-14
     beta                      =       0.7000
     number of iterations used =            4
     Exchange-correlation      = PBE ( 1  4  3  4 0 0)

     celldm(1)=   10.41091  celldm(2)=    0.00000  celldm(3)=    0.00000
     celldm(4)=    0.00000  celldm(5)=    0.00000  celldm(6)=    0.00000

     crystal axes: (cart. coord. in units of alat)
               a(1) = ( -0.5000  0.0000  0.5000 )
               a(2) = (  0.0000  0.5000  0.5000 )
               a(3) = ( -0.5000  0.5000  0.0000 )

     reciprocal axes: (cart. coord. in units 2 pi/alat)
               b(1) = ( -1.0000 -1.0000  1.0000 )
               b(2) = (  1.0000  1.0000  1.0000 )
               b(3) = ( -1.0000  1.0000 -1.0000 )

     Atoms inside the unit cell:

     Cartesian axes

     site n.  atom      mass           positions (alat units)
        1     Si  28.0855   tau(    1) = (    0.00000    0.00000    0.00000  )
        2     Si  28.0855   tau(    2) = (    0.25000    0.25000    0.25000  )

     Computing dynamical matrix for
                    q = (   0.0000000   0.0000000   0.0000000 )

     49 Sym.Ops. (with q -> -q+G )

     G cutoff =  549.0951  (   1352 G-vectors)     FFT grid: ( 36, 36, 36)
     number of k points=    28

     PseudoPot. # 1 for Si read from file:
     ./Si.pbe-n-rrkjus_psl.1.0.0.UPF
     MD5 check sum: 0b0bb1205258b0d07b9f9672cf965d36
     Pseudo is Ultrasoft + core correction, Zval =  4.0
     Generated using "atomic" code by A. Dal Corso  v.5.1
     Using radial grid of 1141 points,  6 beta functions with:
                l(1) =   0
                l(2) =   0
                l(3) =   1
                l(4) =   1
                l(5) =   2
                l(6) =   2
     Q(r) pseudized with 0 coefficients

     Mode symmetry, O_h (m-3m)  point group:

     Electric field:
     Dielectric constant
     Born effective charges in two ways

     Atomic displacements:
     There are   2 irreducible representations

     Representation     1      3 modes -T_2g G_25' G_5+  To be done

     Representation     2      3 modes -T_1u G_15  G_4-  To be done

     Alpha used in Ewald sum =   2.1000

     Electric Fields Calculation

      thresh= 1.000E-02 alpha_mix =  0.700 |ddv_scf|^2 =  1.084E-07

[...]

     End of electric fields calculation

          Dielectric constant in cartesian axis

          (      13.220448098       0.000000000       0.000000000 )
          (       0.000000000      13.220448098      -0.000000000 )
          (       0.000000000      -0.000000000      13.220448098 )

          Effective charges (d Force / dE) in cartesian axis

           atom      1   Si
      Ex  (        0.01799       -0.00000       -0.00000 )
      Ey  (       -0.00000        0.01799        0.00000 )
      Ez  (       -0.00000        0.00000        0.01799 )
           atom      2   Si
      Ex  (        0.01799       -0.00000       -0.00000 )
      Ey  (       -0.00000        0.01799        0.00000 )
      Ez  (       -0.00000        0.00000        0.01799 )

     Representation #  1 modes #   1  2  3

     Self-consistent Calculation

[...]

     End of self-consistent calculation

     Convergence has been achieved

[...]

     Number of q in the star =    1
     List of q in the star:
          1   0.000000000   0.000000000   0.000000000

          Dielectric constant in cartesian axis

          (      13.220448098       0.000000000       0.000000000 )
          (       0.000000000      13.220448098      -0.000000000 )
          (       0.000000000      -0.000000000      13.220448098 )

          Effective charges (d Force / dE) in cartesian axis

[...]

          Effective charges (d P / du) in cartesian axis

           atom      1   Si
      Px  (       -0.00784        0.00000        0.00000 )
      Py  (        0.00000       -0.00784       -0.00000 )
      Pz  (        0.00000       -0.00000       -0.00784 )
           atom      2   Si
      Px  (       -0.00784        0.00000       -0.00000 )
      Py  (       -0.00000       -0.00784       -0.00000 )
      Pz  (       -0.00000        0.00000       -0.00784 )

     Diagonalizing the dynamical matrix

     q = (    0.000000000   0.000000000   0.000000000 )

     freq (    1) =      -0.573618 [THz] =     -19.133838 [cm-1]
     freq (    2) =      -0.573618 [THz] =     -19.133838 [cm-1]
     freq (    3) =      -0.573618 [THz] =     -19.133838 [cm-1]
     freq (    4) =      14.762467 [THz] =     492.422910 [cm-1]
     freq (    5) =      14.762467 [THz] =     492.422910 [cm-1]
     freq (    6) =      14.762467 [THz] =     492.422910 [cm-1]

     Mode symmetry, O_h (m-3m)  point group:

     freq (  1 -  3) =        -19.1  [cm-1]   --> T_1u G_15  G_4- I
     freq (  4 -  6) =        492.4  [cm-1]   --> T_2g G_25' G_5+ R

[...]

     bravais-lattice index     =            2
     lattice parameter (alat)  =      10.4109  a.u.
     unit-cell volume          =     282.1019 (a.u.)^3
     number of atoms/cell      =            2
     number of atomic types    =            1
     number of electrons       =         8.00
     number of Kohn-Sham states=            4
     kinetic-energy cutoff     =      50.0000  Ry
     charge density cutoff     =     200.0000  Ry
     Exchange-correlation      = PBE ( 1  4  3  4 0 0)

[...]

     atomic species   valence    mass     pseudopotential
        Si             4.00    28.08550     Si( 1.00)

     48 Sym. Ops., with inversion, found

[...]

     site n.     atom                  positions (alat units)
         1           Si  tau(   1) = (   0.0000000   0.0000000   0.0000000  )
         2           Si  tau(   2) = (   0.2500000   0.2500000   0.2500000  )

     number of k points=   364

     Number of k-points >= 100: set verbosity='high' to print them.

[...]

     The potential is recalculated from file :
     ./_ph0/si.save/charge-density.dat

     Starting wfc are    8 atomic wfcs

     Band Structure Calculation
     Davidson diagonalization with overlap

     ethr =  1.25E-10,  avg # of iterations = 13.4

     End of band structure calculation

     Number of k-points >= 100: set verbosity='high' to print the bands.

     highest occupied level (ev):     5.7603

     Writing output data file si.save

[...]

      6 Sym.Ops. (no q -> -q+G )

[...]

     Mode symmetry, C_3v (3m)   point group:

[...]

     Representation     1      1 modes -A_1  L_1  To be done

     Representation     2      1 modes -A_1  L_1  To be done

     Representation     3      2 modes -E    L_3  To be done

     Representation     4      2 modes -E    L_3  To be done

[...]

     Representation #  1 mode #   1

[...]

     Mode symmetry, C_3v (3m)   point group:

     freq (  1 -  2) =         94.3  [cm-1]   --> E    L_3
     freq (  3 -  3) =        219.4  [cm-1]   --> A_1  L_1
     freq (  4 -  4) =        463.8  [cm-1]   --> A_1  L_1
     freq (  5 -  6) =        472.3  [cm-1]   --> E    L_3

[...]

     Representation     1      1 modes -  To be done

[...]

     Mode symmetry, C_4v (4mm)  point group:

[...]

     Representation     1      1 modes -A_1  G_1 D_1  To be done

     Representation     2      1 modes -B_2  G_4 D_2'  To be done

     Representation     3      2 modes -E    G_5 D_5  To be done

     Representation     4      2 modes -E    G_5 D_5  To be done

[...]

     Mode symmetry, C_4v (4mm)  point group:

     freq (  1 -  2) =        126.9  [cm-1]   --> E    G_5 D_5
     freq (  3 -  3) =        229.4  [cm-1]   --> A_1  G_1 D_1
     freq (  4 -  5) =        449.2  [cm-1]   --> E    G_5 D_5
     freq (  6 -  6) =        472.0  [cm-1]   --> B_2  G_4 D_2'

[...]

     Mode symmetry, C_s (m)     point group:

[...]

     Representation     1      1 modes -A'  To be done

[...]

     Representation     4      1 modes -A'  To be done

     Representation     5      1 modes -A''  To be done

     Representation     6      1 modes -A''  To be done

[...]

     Mode symmetry, C_s (m)     point group:

     freq (  1 -  1) =        144.0  [cm-1]   --> A''
     freq (  2 -  2) =        196.0  [cm-1]   --> A'
     freq (  3 -  3) =        305.6  [cm-1]   --> A'
     freq (  4 -  4) =        391.9  [cm-1]   --> A'
     freq (  5 -  5) =        440.3  [cm-1]   --> A''
     freq (  6 -  6) =        454.1  [cm-1]   --> A'

[...]

     Mode symmetry, C_2v (mm2)  point group:

[...]

     Representation     6      1 modes -B_2  D_4  S_4  To be done

[...]

     Representation #  6 mode #   6

[...]

     Mode symmetry, C_2v (mm2)  point group:

     freq (  1 -  1) =        138.1  [cm-1]   --> B_1  D_3  S_3
     freq (  2 -  2) =        191.8  [cm-1]   --> B_2  D_4  S_4
     freq (  3 -  3) =        270.9  [cm-1]   --> A_1  D_1  S_1
     freq (  4 -  4) =        398.3  [cm-1]   --> B_2  D_4  S_4
     freq (  5 -  5) =        448.8  [cm-1]   --> A_2  D_2  S_2
     freq (  6 -  6) =        462.6  [cm-1]   --> A_1  D_1  S_1

[...]

     17 Sym.Ops. (with q -> -q+G )

[...]

     Calculation of q =   -0.5000000  -1.0000000   0.0000000

[...]

   Info: using nr1, nr2, nr3 values from input

     bravais-lattice index     =            2
     lattice parameter (alat)  =      10.4109  a.u.
     unit-cell volume          =     282.1019 (a.u.)^3
     number of atoms/cell      =            2
     number of atomic types    =            1
     number of electrons       =         8.00
     number of Kohn-Sham states=            4
     kinetic-energy cutoff     =      50.0000  Ry
     charge density cutoff     =     200.0000  Ry
     Exchange-correlation      = PBE ( 1  4  3  4 0 0)

[...]

     atomic species   valence    mass     pseudopotential
        Si             4.00    28.08550     Si( 1.00)

     48 Sym. Ops., with inversion, found

[...]

     site n.     atom                  positions (alat units)
         1           Si  tau(   1) = (   0.0000000   0.0000000   0.0000000  )
         2           Si  tau(   2) = (   0.2500000   0.2500000   0.2500000  )

     number of k points=   216

     Number of k-points >= 100: set verbosity='high' to print them.

     Check: negative/imaginary core charge=   -0.000001    0.000000

     The potential is recalculated from file :
     ./_ph0/si.save/charge-density.dat

     Starting wfc are    8 atomic wfcs

     Band Structure Calculation
     Davidson diagonalization with overlap

     ethr =  1.25E-10,  avg # of iterations = 13.3

     End of band structure calculation

     Number of k-points >= 100: set verbosity='high' to print the bands.

     highest occupied level (ev):     5.6230

     Writing output data file si.save

     bravais-lattice index     =            2
     lattice parameter (alat)  =      10.4109  a.u.
     unit-cell volume          =     282.1019 (a.u.)^3
     number of atoms/cell      =            2
     number of atomic types    =            1
     kinetic-energy cut-off    =      50.0000  Ry
     charge density cut-off    =     200.0000  Ry
     convergence threshold     =      1.0E-14
     beta                      =       0.7000
     number of iterations used =            4
     Exchange-correlation      = PBE ( 1  4  3  4 0 0)

     celldm(1)=   10.41091  celldm(2)=    0.00000  celldm(3)=    0.00000
     celldm(4)=    0.00000  celldm(5)=    0.00000  celldm(6)=    0.00000

     crystal axes: (cart. coord. in units of alat)
               a(1) = ( -0.5000  0.0000  0.5000 )
               a(2) = (  0.0000  0.5000  0.5000 )
               a(3) = ( -0.5000  0.5000  0.0000 )

     reciprocal axes: (cart. coord. in units 2 pi/alat)
               b(1) = ( -1.0000 -1.0000  1.0000 )
               b(2) = (  1.0000  1.0000  1.0000 )
               b(3) = ( -1.0000  1.0000 -1.0000 )

     Atoms inside the unit cell:

     Cartesian axes

     site n.  atom      mass           positions (alat units)
        1     Si  28.0855   tau(    1) = (    0.00000    0.00000    0.00000  )
        2     Si  28.0855   tau(    2) = (    0.25000    0.25000    0.25000  )

     Computing dynamical matrix for
                    q = (  -0.5000000  -1.0000000   0.0000000 )

      8 Sym.Ops. (no q -> -q+G )

     G cutoff =  549.0951  (   1352 G-vectors)     FFT grid: ( 36, 36, 36)
     number of k points=   216

     PseudoPot. # 1 for Si read from file:
     ./Si.pbe-n-rrkjus_psl.1.0.0.UPF
     MD5 check sum: 0b0bb1205258b0d07b9f9672cf965d36
     Pseudo is Ultrasoft + core correction, Zval =  4.0
     Generated using "atomic" code by A. Dal Corso  v.5.1
     Using radial grid of 1141 points,  6 beta functions with:
                l(1) =   0
                l(2) =   0
                l(3) =   1
                l(4) =   1
                l(5) =   2
                l(6) =   2
     Q(r) pseudized with 0 coefficients

     Atomic displacements:
     There are   3 irreducible representations

[...]

     Representation     3      2 modes -  To be done

     Alpha used in Ewald sum =   2.1000

[...]

     Representation #  3 modes #   5  6

     Self-consistent Calculation

[...]

      thresh= 2.556E-08 alpha_mix =  0.700 |ddv_scf|^2 =  1.427E-15

     End of self-consistent calculation

     Convergence has been achieved

     Number of q in the star =    6
     List of q in the star:
          1  -0.500000000  -1.000000000   0.000000000
          2   0.000000000   1.000000000   0.500000000
          3   0.000000000  -1.000000000  -0.500000000
          4   0.500000000   1.000000000   0.000000000
          5  -1.000000000  -0.500000000   0.000000000
          6   0.000000000  -0.500000000  -1.000000000

     Diagonalizing the dynamical matrix

     q = (   -0.500000000  -1.000000000   0.000000000 )

     freq (    1) =       6.044909 [THz] =     201.636470 [cm-1]
     freq (    2) =       6.044909 [THz] =     201.636470 [cm-1]
     freq (    3) =      10.069065 [THz] =     335.867841 [cm-1]
     freq (    4) =      10.069065 [THz] =     335.867841 [cm-1]
     freq (    5) =      13.143898 [THz] =     438.433233 [cm-1]
     freq (    6) =      13.143898 [THz] =     438.433233 [cm-1]

     General routines

     Parallel routines

     INITIALIZATION:

     DYNAMICAL MATRIX:

      General routines

   This run was terminated on:  16: 6:18  14Jul2020

   JOB DONE.