     Program PWSCF v.6.0 (svn rev. 13079) starts on 29Jul2020 at 20:49:57

     Current dimensions of program PWSCF are:
     Max number of different atomic species (ntypx) = 10
     Max number of k-points (npk) =  40000
     Max angular momentum in pseudopotentials (lmaxx) =  3
               file Cl.pbe-n-rrkjus_psl.0.1.UPF: wavefunction(s)  3S renormalized

     bravais-lattice index     =            2
     lattice parameter (alat)  =      10.6907  a.u.
     unit-cell volume          =     305.4669 (a.u.)^3
     number of atoms/cell      =            2
     number of atomic types    =            2
     number of electrons       =        16.00
     number of Kohn-Sham states=            8
     kinetic-energy cutoff     =      45.0000  Ry
     charge density cutoff     =     180.0000  Ry
     convergence threshold     =      1.0E-10
     mixing beta               =       0.7000
     number of iterations used =            8  plain     mixing
     Exchange-correlation      = PBE ( 1  4  3  4 0 0)

     celldm(1)=  10.690747  celldm(2)=   0.000000  celldm(3)=   0.000000
     celldm(4)=   0.000000  celldm(5)=   0.000000  celldm(6)=   0.000000

     crystal axes: (cart. coord. in units of alat)
               a(1) = (  -0.500000   0.000000   0.500000 )
               a(2) = (   0.000000   0.500000   0.500000 )
               a(3) = (  -0.500000   0.500000   0.000000 )

     reciprocal axes: (cart. coord. in units 2 pi/alat)
               b(1) = ( -1.000000 -1.000000  1.000000 )
               b(2) = (  1.000000  1.000000  1.000000 )
               b(3) = ( -1.000000  1.000000 -1.000000 )

     PseudoPot. # 1 for Na read from file:
     ./Na.pbe-spn-rrkjus_psl.0.2.UPF
     MD5 check sum: b0e5f2d4cf265b0390610ee3cf05b128
     Pseudo is Ultrasoft, Zval =  9.0
     Generated using "atomic" code by A. Dal Corso  v.5.0.2 svn rev. 9415
     Using radial grid of 1121 points,  4 beta functions with:
                l(1) =   0
                l(2) =   0
                l(3) =   1
                l(4) =   1
     Q(r) pseudized with 0 coefficients

     PseudoPot. # 2 for Cl read from file:
     ./Cl.pbe-n-rrkjus_psl.0.1.UPF
     MD5 check sum: 7e659e26dc5ee4ec708db1e629ca6197
     Pseudo is Ultrasoft + core correction, Zval =  7.0
     Generated using "atomic" code by A. Dal Corso  v.5.0.2 svn rev. 9415
     Using radial grid of 1157 points,  4 beta functions with:
                l(1) =   0
                l(2) =   0
                l(3) =   1
                l(4) =   1
     Q(r) pseudized with 0 coefficients

     atomic species   valence    mass     pseudopotential
        Na             9.00    22.98977     Na( 1.00)
        Cl             7.00    35.45300     Cl( 1.00)

     48 Sym. Ops., with inversion, found

   Cartesian axes

     site n.     atom                  positions (alat units)
         1           Na  tau(   1) = (   0.0000000   0.0000000   0.0000000  )
         2           Cl  tau(   2) = (  -0.5000000   0.5000000   0.5000000  )

     number of k points=    16
                       cart. coord. in units 2pi/alat
        k(    1) = (   0.0000000   0.0000000   0.0000000), wk =   0.0092593
        k(    2) = (  -0.1666667   0.1666667  -0.1666667), wk =   0.0740741
        k(    3) = (  -0.3333333   0.3333333  -0.3333333), wk =   0.0740741
        k(    4) = (   0.5000000  -0.5000000   0.5000000), wk =   0.0370370
        k(    5) = (   0.0000000   0.3333333   0.0000000), wk =   0.0555556
        k(    6) = (  -0.1666667   0.5000000  -0.1666667), wk =   0.2222222
        k(    7) = (   0.6666667  -0.3333333   0.6666667), wk =   0.2222222
        k(    8) = (   0.5000000  -0.1666667   0.5000000), wk =   0.2222222
        k(    9) = (   0.3333333   0.0000000   0.3333333), wk =   0.1111111
        k(   10) = (   0.0000000   0.6666667   0.0000000), wk =   0.0555556
        k(   11) = (   0.8333333  -0.1666667   0.8333333), wk =   0.2222222
        k(   12) = (   0.6666667  -0.0000000   0.6666667), wk =   0.1111111
        k(   13) = (   0.0000000  -1.0000000   0.0000000), wk =   0.0277778
        k(   14) = (   0.6666667  -0.3333333   1.0000000), wk =   0.2222222
        k(   15) = (   0.5000000  -0.1666667   0.8333333), wk =   0.2222222
        k(   16) = (  -0.3333333  -1.0000000   0.0000000), wk =   0.1111111

     Check: negative/imaginary core charge=   -0.000019    0.000000

     Initial potential from superposition of free atoms

     starting charge   15.49915, renormalised to   16.00000
     Starting wfc are   12 randomized atomic wfcs

     Self-consistent Calculation

     iteration #  1     ecut=    45.00 Ry     beta=0.70
     Davidson diagonalization with overlap
     ethr =  1.00E-02,  avg # of iterations =  1.0

     total energy              =    -127.10262711 Ry
     Harris-Foulkes estimate   =    -127.23987806 Ry
     estimated scf accuracy    <       0.16583464 Ry

[...]

     total energy              =    -127.16361946 Ry
     Harris-Foulkes estimate   =    -127.16361946 Ry
     estimated scf accuracy    <          4.4E-10 Ry

     iteration #  9     ecut=    45.00 Ry     beta=0.70
     Davidson diagonalization with overlap
     ethr =  2.75E-12,  avg # of iterations =  3.6

     End of self-consistent calculation

          k = 0.0000 0.0000 0.0000 (  1471 PWs)   bands (ev):

   -47.9842 -19.9018 -19.9018 -19.9018 -11.6648   0.9690   0.9690   0.9690

          k =-0.1667 0.1667-0.1667 (  1537 PWs)   bands (ev):

[...]

          k = 0.5000-0.1667 0.8333 (  1556 PWs)   bands (ev):

[...]

          k =-0.3333-1.0000 0.0000 (  1558 PWs)   bands (ev):

   -47.9833 -19.9181 -19.9124 -19.9110 -11.2813  -0.4419   0.0746   0.2677

     highest occupied level (ev):     0.9690

!    total energy              =    -127.16361946 Ry
     Harris-Foulkes estimate   =    -127.16361946 Ry
     estimated scf accuracy    <          5.8E-12 Ry

     The total energy is the sum of the following terms:

     one-electron contribution =     -76.29613322 Ry
     hartree contribution      =      42.41108018 Ry
     xc contribution           =     -24.68294584 Ry
     ewald contribution        =     -68.59562057 Ry

     convergence has been achieved in   9 iterations

     Writing output data file nacl.save

     General routines

     Parallel routines

   This run was terminated on:  20:50: 2  29Jul2020

   JOB DONE.