     Program PHONON v.6.0 (svn rev. 13079) starts on 30Jul2020 at  0: 8:46

     Reading data from directory:
     ./cu.save

   Info: using nr1, nr2, nr3 values from input

[...]

     IMPORTANT: XC functional enforced from input :
     Exchange-correlation      =  SLA  PW   PBX  PBC ( 1  4  3  4 0 0)
     Any further DFT definition will be discarded
     Please, verify this is what you really want

               file Cu.pbe-dn-kjpaw_psl.0.2.UPF: wavefunction(s)  4S 3D renormalized

     Check: negative/imaginary core charge=   -0.000098    0.000000

     Dynamical matrices for ( 4, 4, 4)  uniform grid of q-points
     (   8q-points):
       N         xq(1)         xq(2)         xq(3)
       1   0.000000000   0.000000000   0.000000000
       2  -0.250000000   0.250000000  -0.250000000
       3   0.500000000  -0.500000000   0.500000000
       4   0.000000000   0.500000000   0.000000000
       5   0.750000000  -0.250000000   0.750000000
       6   0.500000000   0.000000000   0.500000000
       7   0.000000000  -1.000000000   0.000000000
       8  -0.500000000  -1.000000000   0.000000000

     Calculation of q =    0.0000000   0.0000000   0.0000000

     bravais-lattice index     =            2
     lattice parameter (alat)  =       6.8315  a.u.
     unit-cell volume          =      79.7039 (a.u.)^3
     number of atoms/cell      =            1
     number of atomic types    =            1
     kinetic-energy cut-off    =      50.0000  Ry
     charge density cut-off    =     200.0000  Ry
     convergence threshold     =      1.0E-14
     beta                      =       0.7000
     number of iterations used =            4
     Exchange-correlation      =  SLA  PW   PBX  PBC ( 1  4  3  4 0 0)

     celldm(1)=    6.83145  celldm(2)=    0.00000  celldm(3)=    0.00000
     celldm(4)=    0.00000  celldm(5)=    0.00000  celldm(6)=    0.00000

     crystal axes: (cart. coord. in units of alat)
               a(1) = ( -0.5000  0.0000  0.5000 )
               a(2) = (  0.0000  0.5000  0.5000 )
               a(3) = ( -0.5000  0.5000  0.0000 )

     reciprocal axes: (cart. coord. in units 2 pi/alat)
               b(1) = ( -1.0000 -1.0000  1.0000 )
               b(2) = (  1.0000  1.0000  1.0000 )
               b(3) = ( -1.0000  1.0000 -1.0000 )

     Atoms inside the unit cell:

     Cartesian axes

     site n.  atom      mass           positions (alat units)
        1     Cu  63.5460   tau(    1) = (    0.00000    0.00000    0.00000  )

     Computing dynamical matrix for
                    q = (   0.0000000   0.0000000   0.0000000 )

     49 Sym.Ops. (with q -> -q+G )

     G cutoff =  236.4267  (    383 G-vectors)     FFT grid: ( 24, 24, 24)

     number of k points=    16  Methfessel-Paxton smearing, width (Ry)=  0.0200

     PseudoPot. # 1 for Cu read from file:
     ./Cu.pbe-dn-kjpaw_psl.0.2.UPF
     MD5 check sum: d65fae2219ee74d11afbc324c9c6044f
     Pseudo is Projector augmented-wave + core cor, Zval = 11.0
     Generated using "atomic" code by A. Dal Corso  v.5.0.2 svn rev. 9415
     Shape of augmentation charge: BESSEL
     Using radial grid of 1199 points,  6 beta functions with:
                l(1) =   0
                l(2) =   0
                l(3) =   1
                l(4) =   1
                l(5) =   2
                l(6) =   2
     Q(r) pseudized with 0 coefficients

     Mode symmetry, O_h (m-3m)  point group:

     Atomic displacements:
     There are   1 irreducible representations

     Representation     1      3 modes -T_1u G_15  G_4-  To be done

     Alpha used in Ewald sum =   2.0000

     Representation #  1 modes #   1  2  3

     Self-consistent Calculation

     Pert. #  1: Fermi energy shift (Ry) =     1.9301E-24    -2.2569E-36
     Pert. #  2: Fermi energy shift (Ry) =    -6.8932E-25    -2.5077E-37
     Pert. #  3: Fermi energy shift (Ry) =     1.7922E-24     1.5046E-36

      thresh= 1.000E-02 alpha_mix =  0.700 |ddv_scf|^2 =  3.710E-06

[...]

     Pert. #  1: Fermi energy shift (Ry) =     2.6194E-24     5.2040E-40
     Pert. #  2: Fermi energy shift (Ry) =     9.6504E-25    -6.1224E-41
     Pert. #  3: Fermi energy shift (Ry) =    -9.3058E-25     6.1224E-41

[...]

     End of self-consistent calculation

     Convergence has been achieved

     Number of q in the star =    1
     List of q in the star:
          1   0.000000000   0.000000000   0.000000000

     Diagonalizing the dynamical matrix

     q = (    0.000000000   0.000000000   0.000000000 )

     freq (    1) =       1.143561 [THz] =      38.145104 [cm-1]
     freq (    2) =       1.143561 [THz] =      38.145104 [cm-1]
     freq (    3) =       1.143561 [THz] =      38.145104 [cm-1]

     Mode symmetry, O_h (m-3m)  point group:

     freq (  1 -  3) =         38.1  [cm-1]   --> T_1u G_15  G_4- I

[...]

     bravais-lattice index     =            2
     lattice parameter (alat)  =       6.8315  a.u.
     unit-cell volume          =      79.7039 (a.u.)^3
     number of atoms/cell      =            1
     number of atomic types    =            1
     number of electrons       =        11.00
     number of Kohn-Sham states=           10
     kinetic-energy cutoff     =      50.0000  Ry
     charge density cutoff     =     200.0000  Ry
     Exchange-correlation      =  SLA  PW   PBX  PBC ( 1  4  3  4 0 0)

[...]

     atomic species   valence    mass     pseudopotential
        Cu            11.00    63.54600     Cu( 1.00)

     48 Sym. Ops., with inversion, found

[...]

     site n.     atom                  positions (alat units)
         1           Cu  tau(   1) = (   0.0000000   0.0000000   0.0000000  )

[...]

     Number of k-points >= 100: set verbosity='high' to print them.

[...]

     The potential is recalculated from file :
     ./_ph0/cu.save/charge-density.dat

     Starting wfc are    9 atomic +    1 random wfc
     Checking if some PAW data can be deallocated...

     Band Structure Calculation
     Davidson diagonalization with overlap

     ethr =  9.09E-11,  avg # of iterations = 14.1

     End of band structure calculation

     Number of k-points >= 100: set verbosity='high' to print the bands.

     the Fermi energy is    14.6201 ev

     Writing output data file cu.save

[...]

      6 Sym.Ops. (no q -> -q+G )

[...]

     Mode symmetry, C_3v (3m)   point group:

[...]

     Representation     1      1 modes -A_1  L_1  To be done

     Representation     2      2 modes -E    L_3  To be done

[...]

     Representation #  1 mode #   1

[...]

     Mode symmetry, C_3v (3m)   point group:

     freq (  1 -  2) =         93.6  [cm-1]   --> E    L_3
     freq (  3 -  3) =        186.8  [cm-1]   --> A_1  L_1

[...]

     number of k points=    64  Methfessel-Paxton smearing, width (Ry)=  0.0200
                       cart. coord. in units 2pi/alat
        k(    1) = (   0.0000000   0.0000000   0.0000000), wk =   0.0092593
        k(    2) = (   0.5000000  -0.5000000   0.5000000), wk =   0.0000000
        k(    3) = (  -0.1666667   0.1666667  -0.1666667), wk =   0.0185185
        k(    4) = (   0.3333333  -0.3333333   0.3333333), wk =   0.0000000
        k(    5) = (  -0.3333333   0.3333333  -0.3333333), wk =   0.0185185
        k(    6) = (   0.1666667  -0.1666667   0.1666667), wk =   0.0000000
        k(    7) = (   0.5000000  -0.5000000   0.5000000), wk =   0.0092593
        k(    8) = (   1.0000000  -1.0000000   1.0000000), wk =   0.0000000
        k(    9) = (   0.0000000   0.3333333   0.0000000), wk =   0.0555556
        k(   10) = (   0.5000000  -0.1666667   0.5000000), wk =   0.0000000
        k(   11) = (  -0.1666667   0.5000000  -0.1666667), wk =   0.0555556
        k(   12) = (   0.3333333   0.0000000   0.3333333), wk =   0.0000000
        k(   13) = (   0.6666667  -0.3333333   0.6666667), wk =   0.0555556
        k(   14) = (   1.1666667  -0.8333333   1.1666667), wk =   0.0000000
        k(   15) = (   0.5000000  -0.1666667   0.5000000), wk =   0.0555556
        k(   16) = (   1.0000000  -0.6666667   1.0000000), wk =   0.0000000
        k(   17) = (   0.3333333   0.0000000   0.3333333), wk =   0.0555556
        k(   18) = (   0.8333333  -0.5000000   0.8333333), wk =   0.0000000
        k(   19) = (   0.0000000   0.6666667   0.0000000), wk =   0.0555556
        k(   20) = (   0.5000000   0.1666667   0.5000000), wk =   0.0000000
        k(   21) = (   0.8333333  -0.1666667   0.8333333), wk =   0.0555556
        k(   22) = (   1.3333333  -0.6666667   1.3333333), wk =   0.0000000
        k(   23) = (   0.6666667  -0.0000000   0.6666667), wk =   0.0555556
        k(   24) = (   1.1666667  -0.5000000   1.1666667), wk =   0.0000000
        k(   25) = (   0.0000000  -1.0000000   0.0000000), wk =   0.0277778
        k(   26) = (   0.5000000  -1.5000000   0.5000000), wk =   0.0000000
        k(   27) = (   0.6666667  -0.3333333   1.0000000), wk =   0.1111111
        k(   28) = (   1.1666667  -0.8333333   1.5000000), wk =   0.0000000
        k(   29) = (   0.5000000  -0.1666667   0.8333333), wk =   0.0555556
        k(   30) = (   1.0000000  -0.6666667   1.3333333), wk =   0.0000000
        k(   31) = (  -0.3333333  -1.0000000   0.0000000), wk =   0.1111111
        k(   32) = (   0.1666667  -1.5000000   0.5000000), wk =   0.0000000
        k(   33) = (  -0.1666667  -0.1666667  -0.1666667), wk =   0.0555556
        k(   34) = (   0.3333333  -0.6666667   0.3333333), wk =   0.0000000
        k(   35) = (  -0.3333333  -0.3333333  -0.3333333), wk =   0.0555556
        k(   36) = (   0.1666667  -0.8333333   0.1666667), wk =   0.0000000
        k(   37) = (   0.5000000   0.5000000   0.5000000), wk =   0.0277778
        k(   38) = (   1.0000000   0.0000000   1.0000000), wk =   0.0000000
        k(   39) = (  -0.1666667  -0.5000000  -0.1666667), wk =   0.0555556
        k(   40) = (   0.3333333  -1.0000000   0.3333333), wk =   0.0000000
        k(   41) = (   0.1666667  -0.5000000  -0.1666667), wk =   0.1111111
        k(   42) = (   0.6666667  -1.0000000   0.3333333), wk =   0.0000000
        k(   43) = (   0.6666667   0.3333333   0.6666667), wk =   0.0555556
        k(   44) = (   1.1666667  -0.1666667   1.1666667), wk =   0.0000000
        k(   45) = (  -0.6666667   0.3333333   0.6666667), wk =   0.1111111
        k(   46) = (  -0.1666667  -0.1666667   1.1666667), wk =   0.0000000
        k(   47) = (   0.5000000   0.1666667   0.5000000), wk =   0.0555556
        k(   48) = (   1.0000000  -0.3333333   1.0000000), wk =   0.0000000
        k(   49) = (  -0.5000000   0.1666667   0.5000000), wk =   0.1111111
        k(   50) = (   0.0000000  -0.3333333   1.0000000), wk =   0.0000000
        k(   51) = (  -0.3333333   0.0000000   0.3333333), wk =   0.0555556
        k(   52) = (   0.1666667  -0.5000000   0.8333333), wk =   0.0000000
        k(   53) = (   0.8333333   0.1666667   0.8333333), wk =   0.0555556
        k(   54) = (   1.3333333  -0.3333333   1.3333333), wk =   0.0000000
        k(   55) = (  -0.8333333   0.1666667   0.8333333), wk =   0.1111111
        k(   56) = (  -0.3333333  -0.3333333   1.3333333), wk =   0.0000000
        k(   57) = (  -0.6666667   0.0000000   0.6666667), wk =   0.0555556
        k(   58) = (  -0.1666667  -0.5000000   1.1666667), wk =   0.0000000
        k(   59) = (   0.6666667   0.3333333   1.0000000), wk =   0.1111111
        k(   60) = (   1.1666667  -0.1666667   1.5000000), wk =   0.0000000
        k(   61) = (   0.5000000   0.1666667   0.8333333), wk =   0.1111111
        k(   62) = (   1.0000000  -0.3333333   1.3333333), wk =   0.0000000
        k(   63) = (  -0.8333333   0.1666667   0.5000000), wk =   0.0555556
        k(   64) = (  -0.3333333  -0.3333333   1.0000000), wk =   0.0000000

[...]

          k = 0.0000 0.0000 0.0000 (   531 PWs)   bands (ev):

     5.2409  11.6442  11.6442  11.6442  12.4734  12.4734  37.5889  39.9483
    39.9483  39.9483

[...]

          k =-0.1667 0.1667-0.1667 (   489 PWs)   bands (ev):

[...]

     Mode symmetry, D_3d (-3m)  point group:

[...]

     Representation     1      1 modes -A_2u L_2'  To be done

     Representation     2      2 modes -E_u  L_3'  To be done

[...]

     freq (  1 -  2) =        120.1  [cm-1]   --> E_u  L_3'
     freq (  3 -  3) =        263.1  [cm-1]   --> A_2u L_2'

[...]

     Mode symmetry, C_4v (4mm)  point group:

[...]

     Representation     1      1 modes -A_1  G_1 D_1  To be done

     Representation     2      2 modes -E    G_5 D_5  To be done

[...]

     Mode symmetry, C_4v (4mm)  point group:

     freq (  1 -  2) =        129.5  [cm-1]   --> E    G_5 D_5
     freq (  3 -  3) =        187.4  [cm-1]   --> A_1  G_1 D_1

[...]

     Mode symmetry, C_s (m)     point group:

[...]

     Representation     1      1 modes -A'  To be done

     Representation     2      1 modes -A'  To be done

     Representation     3      1 modes -A''  To be done

[...]

     Mode symmetry, C_s (m)     point group:

     freq (  1 -  1) =        140.5  [cm-1]   --> A''
     freq (  2 -  2) =        175.6  [cm-1]   --> A'
     freq (  3 -  3) =        245.5  [cm-1]   --> A'

[...]

     Number of k-points >= 100: set verbosity='high' to print them.

[...]

     Number of k-points >= 100: set verbosity='high' to print the bands.

[...]

     Mode symmetry, C_2v (mm2)  point group:

[...]

     Mode symmetry, C_2v (mm2)  point group:

     freq (  1 -  1) =        109.0  [cm-1]   --> B_1  D_3  S_3
     freq (  2 -  2) =        171.8  [cm-1]   --> B_2  D_4  S_4
     freq (  3 -  3) =        220.6  [cm-1]   --> A_1  D_1  S_1

[...]

     17 Sym.Ops. (with q -> -q+G )

[...]

     Mode symmetry, D_4h(4/mmm) point group:

[...]

     Representation     1      1 modes -A_2u X_4' M_4'  To be done

     Representation     2      2 modes -E_u  X_5' M_5'  To be done

[...]

     Mode symmetry, D_4h(4/mmm) point group:

     freq (  1 -  2) =        174.6  [cm-1]   --> E_u  X_5' M_5'
     freq (  3 -  3) =        252.2  [cm-1]   --> A_2u X_4' M_4'

     Calculation of q =   -0.5000000  -1.0000000   0.0000000

[...]

   Info: using nr1, nr2, nr3 values from input

     bravais-lattice index     =            2
     lattice parameter (alat)  =       6.8315  a.u.
     unit-cell volume          =      79.7039 (a.u.)^3
     number of atoms/cell      =            1
     number of atomic types    =            1
     number of electrons       =        11.00
     number of Kohn-Sham states=           10
     kinetic-energy cutoff     =      50.0000  Ry
     charge density cutoff     =     200.0000  Ry
     Exchange-correlation      =  SLA  PW   PBX  PBC ( 1  4  3  4 0 0)

[...]

     atomic species   valence    mass     pseudopotential
        Cu            11.00    63.54600     Cu( 1.00)

     48 Sym. Ops., with inversion, found

[...]

     site n.     atom                  positions (alat units)
         1           Cu  tau(   1) = (   0.0000000   0.0000000   0.0000000  )

     number of k points=    82  Methfessel-Paxton smearing, width (Ry)=  0.0200
                       cart. coord. in units 2pi/alat
        k(    1) = (   0.0000000   0.0000000   0.0000000), wk =   0.0092593
        k(    2) = (  -0.5000000  -1.0000000   0.0000000), wk =   0.0000000
        k(    3) = (  -0.1666667   0.1666667  -0.1666667), wk =   0.0740741
        k(    4) = (  -0.6666667  -0.8333333  -0.1666667), wk =   0.0000000
        k(    5) = (  -0.3333333   0.3333333  -0.3333333), wk =   0.0740741
        k(    6) = (  -0.8333333  -0.6666667  -0.3333333), wk =   0.0000000
        k(    7) = (   0.5000000  -0.5000000   0.5000000), wk =   0.0370370
        k(    8) = (   0.0000000  -1.5000000   0.5000000), wk =   0.0000000
        k(    9) = (   0.0000000   0.3333333   0.0000000), wk =   0.0370370
        k(   10) = (  -0.5000000  -0.6666667   0.0000000), wk =   0.0000000
        k(   11) = (  -0.1666667   0.5000000  -0.1666667), wk =   0.0740741
        k(   12) = (  -0.6666667  -0.5000000  -0.1666667), wk =   0.0000000
        k(   13) = (   0.6666667  -0.3333333   0.6666667), wk =   0.0740741
        k(   14) = (   0.1666667  -1.3333333   0.6666667), wk =   0.0000000
        k(   15) = (   0.5000000  -0.1666667   0.5000000), wk =   0.0740741
        k(   16) = (   0.0000000  -1.1666667   0.5000000), wk =   0.0000000
        k(   17) = (   0.3333333   0.0000000   0.3333333), wk =   0.0370370
        k(   18) = (  -0.1666667  -1.0000000   0.3333333), wk =   0.0000000
        k(   19) = (   0.0000000   0.6666667   0.0000000), wk =   0.0370370
        k(   20) = (  -0.5000000  -0.3333333   0.0000000), wk =   0.0000000
        k(   21) = (   0.8333333  -0.1666667   0.8333333), wk =   0.0740741
        k(   22) = (   0.3333333  -1.1666667   0.8333333), wk =   0.0000000
        k(   23) = (   0.6666667  -0.0000000   0.6666667), wk =   0.0370370
        k(   24) = (   0.1666667  -1.0000000   0.6666667), wk =   0.0000000
        k(   25) = (   0.0000000  -1.0000000   0.0000000), wk =   0.0185185
        k(   26) = (  -0.5000000  -2.0000000   0.0000000), wk =   0.0000000
        k(   27) = (   0.6666667  -0.3333333   1.0000000), wk =   0.0370370
        k(   28) = (   0.1666667  -1.3333333   1.0000000), wk =   0.0000000
        k(   29) = (   0.5000000  -0.1666667   0.8333333), wk =   0.0370370
        k(   30) = (   0.0000000  -1.1666667   0.8333333), wk =   0.0000000
        k(   31) = (  -0.3333333  -1.0000000   0.0000000), wk =   0.0185185
        k(   32) = (  -0.8333333  -2.0000000   0.0000000), wk =   0.0000000
        k(   33) = (   0.3333333   0.0000000   0.0000000), wk =   0.0185185
        k(   34) = (  -0.1666667  -1.0000000   0.0000000), wk =   0.0000000
        k(   35) = (   0.1666667  -0.5000000   0.1666667), wk =   0.0740741
        k(   36) = (  -0.3333333  -1.5000000   0.1666667), wk =   0.0000000
        k(   37) = (   0.5000000  -0.1666667  -0.1666667), wk =   0.0740741
        k(   38) = (   0.0000000  -1.1666667  -0.1666667), wk =   0.0000000
        k(   39) = (  -0.6666667   0.3333333  -0.6666667), wk =   0.0740741
        k(   40) = (  -1.1666667  -0.6666667  -0.6666667), wk =   0.0000000
        k(   41) = (  -0.3333333   0.6666667   0.6666667), wk =   0.0740741
        k(   42) = (  -0.8333333  -0.3333333   0.6666667), wk =   0.0000000
        k(   43) = (  -0.5000000   0.1666667  -0.5000000), wk =   0.0740741
        k(   44) = (  -1.0000000  -0.8333333  -0.5000000), wk =   0.0000000
        k(   45) = (  -0.1666667   0.5000000   0.5000000), wk =   0.0740741
        k(   46) = (  -0.6666667  -0.5000000   0.5000000), wk =   0.0000000
        k(   47) = (  -0.3333333   0.0000000  -0.3333333), wk =   0.0370370
        k(   48) = (  -0.8333333  -1.0000000  -0.3333333), wk =   0.0000000
        k(   49) = (   0.0000000   0.3333333   0.3333333), wk =   0.0370370
        k(   50) = (  -0.5000000  -0.6666667   0.3333333), wk =   0.0000000
        k(   51) = (   0.6666667   0.0000000   0.0000000), wk =   0.0185185
        k(   52) = (   0.1666667  -1.0000000   0.0000000), wk =   0.0000000
        k(   53) = (  -0.8333333   0.1666667  -0.8333333), wk =   0.0740741
        k(   54) = (  -1.3333333  -0.8333333  -0.8333333), wk =   0.0000000
        k(   55) = (  -0.1666667   0.8333333   0.8333333), wk =   0.0740741
        k(   56) = (  -0.6666667  -0.1666667   0.8333333), wk =   0.0000000
        k(   57) = (  -0.6666667   0.0000000  -0.6666667), wk =   0.0370370
        k(   58) = (  -1.1666667  -1.0000000  -0.6666667), wk =   0.0000000
        k(   59) = (   0.0000000   0.6666667   0.6666667), wk =   0.0370370
        k(   60) = (  -0.5000000  -0.3333333   0.6666667), wk =   0.0000000
[...]
        k(   68) = (  -0.8333333   0.0000000   0.6666667), wk =   0.0000000
        k(   69) = (   0.3333333   1.0000000  -0.6666667), wk =   0.0370370
        k(   70) = (  -0.1666667   0.0000000  -0.6666667), wk =   0.0000000
        k(   71) = (  -0.8333333   0.1666667  -0.5000000), wk =   0.0740741
        k(   72) = (  -1.3333333  -0.8333333  -0.5000000), wk =   0.0000000
        k(   73) = (   0.8333333  -0.1666667   0.5000000), wk =   0.0740741
        k(   74) = (   0.3333333  -1.1666667   0.5000000), wk =   0.0000000
        k(   75) = (  -0.5000000   0.1666667   0.8333333), wk =   0.0370370
        k(   76) = (  -1.0000000  -0.8333333   0.8333333), wk =   0.0000000
        k(   77) = (   0.0000000   1.0000000   0.3333333), wk =   0.0370370
        k(   78) = (  -0.5000000   0.0000000   0.3333333), wk =   0.0000000
        k(   79) = (   0.3333333   1.0000000   0.0000000), wk =   0.0185185
        k(   80) = (  -0.1666667   0.0000000   0.0000000), wk =   0.0000000
        k(   81) = (  -1.0000000   0.0000000  -0.3333333), wk =   0.0370370
        k(   82) = (  -1.5000000  -1.0000000  -0.3333333), wk =   0.0000000

     Check: negative/imaginary core charge=   -0.000098    0.000000

     The potential is recalculated from file :
     ./_ph0/cu.save/charge-density.dat

     Starting wfc are    9 atomic +    1 random wfc
     Checking if some PAW data can be deallocated...

     Band Structure Calculation
     Davidson diagonalization with overlap

     ethr =  9.09E-11,  avg # of iterations = 14.2

     End of band structure calculation

[...]

          k = 0.3333 1.0000 0.0000 (   478 PWs)   bands (ev):

[...]

          k =-1.5000-1.0000-0.3333 (   476 PWs)   bands (ev):

    10.5764  11.0128  11.1585  12.3097  12.7434  15.9535  22.5586  24.2486
    30.6868  37.9219

     the Fermi energy is    14.6201 ev

     Writing output data file cu.save

     bravais-lattice index     =            2
     lattice parameter (alat)  =       6.8315  a.u.
     unit-cell volume          =      79.7039 (a.u.)^3
     number of atoms/cell      =            1
     number of atomic types    =            1
     kinetic-energy cut-off    =      50.0000  Ry
     charge density cut-off    =     200.0000  Ry
     convergence threshold     =      1.0E-14
     beta                      =       0.7000
     number of iterations used =            4
     Exchange-correlation      =  SLA  PW   PBX  PBC ( 1  4  3  4 0 0)

     celldm(1)=    6.83145  celldm(2)=    0.00000  celldm(3)=    0.00000
     celldm(4)=    0.00000  celldm(5)=    0.00000  celldm(6)=    0.00000

     crystal axes: (cart. coord. in units of alat)
               a(1) = ( -0.5000  0.0000  0.5000 )
               a(2) = (  0.0000  0.5000  0.5000 )
               a(3) = ( -0.5000  0.5000  0.0000 )

     reciprocal axes: (cart. coord. in units 2 pi/alat)
               b(1) = ( -1.0000 -1.0000  1.0000 )
               b(2) = (  1.0000  1.0000  1.0000 )
               b(3) = ( -1.0000  1.0000 -1.0000 )

     Atoms inside the unit cell:

     Cartesian axes

     site n.  atom      mass           positions (alat units)
        1     Cu  63.5460   tau(    1) = (    0.00000    0.00000    0.00000  )

     Computing dynamical matrix for
                    q = (  -0.5000000  -1.0000000   0.0000000 )

      8 Sym.Ops. (no q -> -q+G )

     G cutoff =  236.4267  (    383 G-vectors)     FFT grid: ( 24, 24, 24)

     number of k points=    82  Methfessel-Paxton smearing, width (Ry)=  0.0200

     PseudoPot. # 1 for Cu read from file:
     ./Cu.pbe-dn-kjpaw_psl.0.2.UPF
     MD5 check sum: d65fae2219ee74d11afbc324c9c6044f
     Pseudo is Projector augmented-wave + core cor, Zval = 11.0
     Generated using "atomic" code by A. Dal Corso  v.5.0.2 svn rev. 9415
     Shape of augmentation charge: BESSEL
     Using radial grid of 1199 points,  6 beta functions with:
                l(1) =   0
                l(2) =   0
                l(3) =   1
                l(4) =   1
                l(5) =   2
                l(6) =   2
     Q(r) pseudized with 0 coefficients

[...]

     Atomic displacements:
     There are   2 irreducible representations

     Representation     1      1 modes -B_2  X_3  W_2  To be done

     Representation     2      2 modes -E    X_5  W_3  To be done

     Alpha used in Ewald sum =   2.0000

     Representation #  1 mode #   1

[...]

     Representation #  2 modes #   2  3

     Self-consistent Calculation

[...]

      thresh= 1.397E-08 alpha_mix =  0.700 |ddv_scf|^2 =  5.800E-17

     End of self-consistent calculation

     Convergence has been achieved

     Number of q in the star =    6
     List of q in the star:
          1  -0.500000000  -1.000000000   0.000000000
          2   0.000000000   1.000000000   0.500000000
          3   0.000000000  -1.000000000  -0.500000000
          4   0.500000000   1.000000000   0.000000000
          5  -1.000000000  -0.500000000   0.000000000
          6   0.000000000  -0.500000000  -1.000000000

     Diagonalizing the dynamical matrix

     q = (   -0.500000000  -1.000000000   0.000000000 )

     freq (    1) =       5.442848 [THz] =     181.553878 [cm-1]
     freq (    2) =       6.554969 [THz] =     218.650222 [cm-1]
     freq (    3) =       6.554969 [THz] =     218.650222 [cm-1]

     Mode symmetry, D_2d (-42m) point group:

     freq (  1 -  1) =        181.6  [cm-1]   --> B_2  X_3  W_2
     freq (  2 -  3) =        218.7  [cm-1]   --> E    X_5  W_3

     General routines

     Parallel routines

     INITIALIZATION:

     DYNAMICAL MATRIX:

      General routines

   This run was terminated on:   0:13:21  30Jul2020

   JOB DONE.