     Program PHONON v.6.0 (svn rev. 13079) starts on 29Jul2020 at 23:49:33

     Reading data from directory:
     ./wavefunctions/cu.save

   Info: using nr1, nr2, nr3 values from input

   Info: using nr1, nr2, nr3 values from input

     IMPORTANT: XC functional enforced from input :
     Exchange-correlation      =  SLA  PW   PBX  PBC ( 1  4  3  4 0 0)
     Any further DFT definition will be discarded
     Please, verify this is what you really want

               file Cu.pbe-dn-kjpaw_psl.0.2.UPF: wavefunction(s)  4S 3D renormalized

     Check: negative/imaginary core charge=   -0.000098    0.000000

     Calculation of q =    0.0000000   0.0000000   0.0000000

     bravais-lattice index     =            2
     lattice parameter (alat)  =       6.8315  a.u.
     unit-cell volume          =      79.7039 (a.u.)^3
     number of atoms/cell      =            1
     number of atomic types    =            1
     kinetic-energy cut-off    =      50.0000  Ry
     charge density cut-off    =     200.0000  Ry
     convergence threshold     =      1.0E-14
     beta                      =       0.7000
     number of iterations used =            4
     Exchange-correlation      =  SLA  PW   PBX  PBC ( 1  4  3  4 0 0)

     celldm(1)=    6.83145  celldm(2)=    0.00000  celldm(3)=    0.00000
     celldm(4)=    0.00000  celldm(5)=    0.00000  celldm(6)=    0.00000

     crystal axes: (cart. coord. in units of alat)
               a(1) = ( -0.5000  0.0000  0.5000 )
               a(2) = (  0.0000  0.5000  0.5000 )
               a(3) = ( -0.5000  0.5000  0.0000 )

     reciprocal axes: (cart. coord. in units 2 pi/alat)
               b(1) = ( -1.0000 -1.0000  1.0000 )
               b(2) = (  1.0000  1.0000  1.0000 )
               b(3) = ( -1.0000  1.0000 -1.0000 )

     Atoms inside the unit cell:

     Cartesian axes

     site n.  atom      mass           positions (alat units)
        1     Cu  63.5460   tau(    1) = (    0.00000    0.00000    0.00000  )

     Computing dynamical matrix for
                    q = (   0.0000000   0.0000000   0.0000000 )

     49 Sym.Ops. (with q -> -q+G )

     G cutoff =  236.4267  (    383 G-vectors)     FFT grid: ( 24, 24, 24)

     number of k points=    16  Methfessel-Paxton smearing, width (Ry)=  0.0200
                       cart. coord. in units 2pi/alat
        k(    1) = (   0.0000000   0.0000000   0.0000000), wk =   0.0092593
        k(    2) = (  -0.1666667   0.1666667  -0.1666667), wk =   0.0740741
        k(    3) = (  -0.3333333   0.3333333  -0.3333333), wk =   0.0740741
        k(    4) = (   0.5000000  -0.5000000   0.5000000), wk =   0.0370370
        k(    5) = (   0.0000000   0.3333333   0.0000000), wk =   0.0555556
        k(    6) = (  -0.1666667   0.5000000  -0.1666667), wk =   0.2222222
        k(    7) = (   0.6666667  -0.3333333   0.6666667), wk =   0.2222222
        k(    8) = (   0.5000000  -0.1666667   0.5000000), wk =   0.2222222
        k(    9) = (   0.3333333   0.0000000   0.3333333), wk =   0.1111111
        k(   10) = (   0.0000000   0.6666667   0.0000000), wk =   0.0555556
        k(   11) = (   0.8333333  -0.1666667   0.8333333), wk =   0.2222222
        k(   12) = (   0.6666667  -0.0000000   0.6666667), wk =   0.1111111
        k(   13) = (   0.0000000  -1.0000000   0.0000000), wk =   0.0277778
        k(   14) = (   0.6666667  -0.3333333   1.0000000), wk =   0.2222222
        k(   15) = (   0.5000000  -0.1666667   0.8333333), wk =   0.2222222
        k(   16) = (  -0.3333333  -1.0000000   0.0000000), wk =   0.1111111

     PseudoPot. # 1 for Cu read from file:
     ./Cu.pbe-dn-kjpaw_psl.0.2.UPF
     MD5 check sum: d65fae2219ee74d11afbc324c9c6044f
     Pseudo is Projector augmented-wave + core cor, Zval = 11.0
     Generated using "atomic" code by A. Dal Corso  v.5.0.2 svn rev. 9415
     Shape of augmentation charge: BESSEL
     Using radial grid of 1199 points,  6 beta functions with:
                l(1) =   0
                l(2) =   0
                l(3) =   1
                l(4) =   1
                l(5) =   2
                l(6) =   2
     Q(r) pseudized with 0 coefficients

     Mode symmetry, O_h (m-3m)  point group:

     Atomic displacements:
     There are   1 irreducible representations

     Representation     1      3 modes -T_1u G_15  G_4-  To be done

     Alpha used in Ewald sum =   2.0000

     Representation #  1 modes #   1  2  3

     Self-consistent Calculation

     Pert. #  1: Fermi energy shift (Ry) =     0.0000E+00     5.0154E-37
     Pert. #  2: Fermi energy shift (Ry) =    -6.8932E-25     7.5232E-37
     Pert. #  3: Fermi energy shift (Ry) =    -1.3786E-25     0.0000E+00

      thresh= 1.000E-02 alpha_mix =  0.700 |ddv_scf|^2 =  3.710E-06

[...]

     Pert. #  1: Fermi energy shift (Ry) =     4.1359E-25    -9.1835E-41
     Pert. #  2: Fermi energy shift (Ry) =     5.5145E-25    -6.1224E-41
     Pert. #  3: Fermi energy shift (Ry) =     2.4126E-25     0.0000E+00

      thresh= 1.158E-08 alpha_mix =  0.700 |ddv_scf|^2 =  3.924E-16

     End of self-consistent calculation

     Convergence has been achieved

     Number of q in the star =    1
     List of q in the star:
          1   0.000000000   0.000000000   0.000000000

     Diagonalizing the dynamical matrix

     q = (    0.000000000   0.000000000   0.000000000 )

     freq (    1) =       1.143561 [THz] =      38.145104 [cm-1]
     freq (    2) =       1.143561 [THz] =      38.145104 [cm-1]
     freq (    3) =       1.143561 [THz] =      38.145104 [cm-1]

     Mode symmetry, O_h (m-3m)  point group:

     freq (  1 -  3) =         38.1  [cm-1]   --> T_1u G_15  G_4- I

     INITIALIZATION:

     DYNAMICAL MATRIX:

      General routines

   This run was terminated on:  23:49:47  29Jul2020

   JOB DONE.