     Program PWSCF v.6.0 (svn rev. 13079) starts on 29Jul2020 at 23:49:30

     Current dimensions of program PWSCF are:
     Max number of different atomic species (ntypx) = 10
     Max number of k-points (npk) =  40000
     Max angular momentum in pseudopotentials (lmaxx) =  3
               file Cu.pbe-dn-kjpaw_psl.0.2.UPF: wavefunction(s)  4S 3D renormalized

     bravais-lattice index     =            2
     lattice parameter (alat)  =       6.8315  a.u.
     unit-cell volume          =      79.7039 (a.u.)^3
     number of atoms/cell      =            1
     number of atomic types    =            1
     number of electrons       =        11.00
     number of Kohn-Sham states=           10
     kinetic-energy cutoff     =      50.0000  Ry
     charge density cutoff     =     200.0000  Ry
     convergence threshold     =      1.0E-10
     mixing beta               =       0.7000
     number of iterations used =            8  plain     mixing
     Exchange-correlation      =  SLA  PW   PBX  PBC ( 1  4  3  4 0 0)

     celldm(1)=   6.831454  celldm(2)=   0.000000  celldm(3)=   0.000000
     celldm(4)=   0.000000  celldm(5)=   0.000000  celldm(6)=   0.000000

     crystal axes: (cart. coord. in units of alat)
               a(1) = (  -0.500000   0.000000   0.500000 )
               a(2) = (   0.000000   0.500000   0.500000 )
               a(3) = (  -0.500000   0.500000   0.000000 )

     reciprocal axes: (cart. coord. in units 2 pi/alat)
               b(1) = ( -1.000000 -1.000000  1.000000 )
               b(2) = (  1.000000  1.000000  1.000000 )
               b(3) = ( -1.000000  1.000000 -1.000000 )

     PseudoPot. # 1 for Cu read from file:
     ./Cu.pbe-dn-kjpaw_psl.0.2.UPF
     MD5 check sum: d65fae2219ee74d11afbc324c9c6044f
     Pseudo is Projector augmented-wave + core cor, Zval = 11.0
     Generated using "atomic" code by A. Dal Corso  v.5.0.2 svn rev. 9415
     Shape of augmentation charge: BESSEL
     Using radial grid of 1199 points,  6 beta functions with:
                l(1) =   0
                l(2) =   0
                l(3) =   1
                l(4) =   1
                l(5) =   2
                l(6) =   2
     Q(r) pseudized with 0 coefficients

     atomic species   valence    mass     pseudopotential
        Cu            11.00    63.54600     Cu( 1.00)

     48 Sym. Ops., with inversion, found

   Cartesian axes

     site n.     atom                  positions (alat units)
         1           Cu  tau(   1) = (   0.0000000   0.0000000   0.0000000  )

     number of k points=    16  Methfessel-Paxton smearing, width (Ry)=  0.0200
                       cart. coord. in units 2pi/alat
        k(    1) = (   0.0000000   0.0000000   0.0000000), wk =   0.0092593
        k(    2) = (  -0.1666667   0.1666667  -0.1666667), wk =   0.0740741
        k(    3) = (  -0.3333333   0.3333333  -0.3333333), wk =   0.0740741
        k(    4) = (   0.5000000  -0.5000000   0.5000000), wk =   0.0370370
        k(    5) = (   0.0000000   0.3333333   0.0000000), wk =   0.0555556
        k(    6) = (  -0.1666667   0.5000000  -0.1666667), wk =   0.2222222
        k(    7) = (   0.6666667  -0.3333333   0.6666667), wk =   0.2222222
        k(    8) = (   0.5000000  -0.1666667   0.5000000), wk =   0.2222222
        k(    9) = (   0.3333333   0.0000000   0.3333333), wk =   0.1111111
        k(   10) = (   0.0000000   0.6666667   0.0000000), wk =   0.0555556
        k(   11) = (   0.8333333  -0.1666667   0.8333333), wk =   0.2222222
        k(   12) = (   0.6666667  -0.0000000   0.6666667), wk =   0.1111111
        k(   13) = (   0.0000000  -1.0000000   0.0000000), wk =   0.0277778
        k(   14) = (   0.6666667  -0.3333333   1.0000000), wk =   0.2222222
        k(   15) = (   0.5000000  -0.1666667   0.8333333), wk =   0.2222222
        k(   16) = (  -0.3333333  -1.0000000   0.0000000), wk =   0.1111111

     Check: negative/imaginary core charge=   -0.000098    0.000000

     Initial potential from superposition of free atoms

     starting charge   10.99977, renormalised to   11.00000
     Starting wfc are    9 randomized atomic wfcs +    1 random wfc
     Checking if some PAW data can be deallocated...

     Self-consistent Calculation

     iteration #  1     ecut=    50.00 Ry     beta=0.70
     Davidson diagonalization with overlap
     ethr =  1.00E-02,  avg # of iterations =  4.0

     Threshold (ethr) on eigenvalues was too large:
     Diagonalizing with lowered threshold

     Davidson diagonalization with overlap
     ethr =  1.85E-04,  avg # of iterations =  1.6

     total energy              =    -213.08277371 Ry
     Harris-Foulkes estimate   =    -213.09681043 Ry
     estimated scf accuracy    <       0.01937482 Ry

[...]

     total energy              =    -213.09185256 Ry
     Harris-Foulkes estimate   =    -213.09185256 Ry
     estimated scf accuracy    <          2.3E-10 Ry

     iteration # 10     ecut=    50.00 Ry     beta=0.70
     Davidson diagonalization with overlap
     ethr =  2.12E-12,  avg # of iterations =  2.0

     End of self-consistent calculation

          k = 0.0000 0.0000 0.0000 (   531 PWs)   bands (ev):

     5.2409  11.6442  11.6442  11.6442  12.4734  12.4734  37.5888  39.9483
    39.9483  39.9483

          k =-0.1667 0.1667-0.1667 (   489 PWs)   bands (ev):

[...]

          k = 0.5000-0.1667 0.8333 (   478 PWs)   bands (ev):

[...]

          k =-0.3333-1.0000 0.0000 (   478 PWs)   bands (ev):

    10.2941  10.6314  11.8368  12.6234  13.1945  18.6781  22.3435  23.3598
    24.6609  38.3843

     the Fermi energy is    14.6201 ev

!    total energy              =    -213.09185256 Ry
     Harris-Foulkes estimate   =    -213.09185256 Ry
     estimated scf accuracy    <          2.3E-12 Ry

     total all-electron energy =     -3309.971621 Ry

     The total energy is the sum of the following terms:

     one-electron contribution =     -29.63319981 Ry
     hartree contribution      =      17.48998934 Ry
     xc contribution           =     -36.80408195 Ry
     ewald contribution        =     -81.20794147 Ry
     one-center paw contrib.   =     -82.93641200 Ry
     smearing contrib. (-TS)   =      -0.00020668 Ry

     convergence has been achieved in  10 iterations

     Writing output data file cu.save

     General routines

     Parallel routines

   This run was terminated on:  23:49:32  29Jul2020

   JOB DONE.