     Program PHONON v.6.0 (svn rev. 13079) starts on 29Jul2020 at 21:37: 6

     Reading data from directory:
     ./nacl.save

   Info: using nr1, nr2, nr3 values from input

[...]

     IMPORTANT: XC functional enforced from input :
     Exchange-correlation      = PBE ( 1  4  3  4 0 0)
     Any further DFT definition will be discarded
     Please, verify this is what you really want

               file Cl.pbe-n-rrkjus_psl.0.1.UPF: wavefunction(s)  3S renormalized

     Check: negative/imaginary core charge=   -0.000019    0.000000

     Dynamical matrices for ( 4, 4, 4)  uniform grid of q-points
     (   8q-points):
       N         xq(1)         xq(2)         xq(3)
       1   0.000000000   0.000000000   0.000000000
       2  -0.250000000   0.250000000  -0.250000000
       3   0.500000000  -0.500000000   0.500000000
       4   0.000000000   0.500000000   0.000000000
       5   0.750000000  -0.250000000   0.750000000
       6   0.500000000   0.000000000   0.500000000
       7   0.000000000  -1.000000000   0.000000000
       8  -0.500000000  -1.000000000   0.000000000

     Calculation of q =    0.0000000   0.0000000   0.0000000

     bravais-lattice index     =            2
     lattice parameter (alat)  =      10.6907  a.u.
     unit-cell volume          =     305.4669 (a.u.)^3
     number of atoms/cell      =            2
     number of atomic types    =            2
     kinetic-energy cut-off    =      45.0000  Ry
     charge density cut-off    =     180.0000  Ry
     convergence threshold     =      1.0E-14
     beta                      =       0.7000
     number of iterations used =            4
     Exchange-correlation      = PBE ( 1  4  3  4 0 0)

     celldm(1)=   10.69075  celldm(2)=    0.00000  celldm(3)=    0.00000
     celldm(4)=    0.00000  celldm(5)=    0.00000  celldm(6)=    0.00000

     crystal axes: (cart. coord. in units of alat)
               a(1) = ( -0.5000  0.0000  0.5000 )
               a(2) = (  0.0000  0.5000  0.5000 )
               a(3) = ( -0.5000  0.5000  0.0000 )

     reciprocal axes: (cart. coord. in units 2 pi/alat)
               b(1) = ( -1.0000 -1.0000  1.0000 )
               b(2) = (  1.0000  1.0000  1.0000 )
               b(3) = ( -1.0000  1.0000 -1.0000 )

     Atoms inside the unit cell:

     Cartesian axes

     site n.  atom      mass           positions (alat units)
        1     Na  22.9898   tau(    1) = (    0.00000    0.00000    0.00000  )
        2     Cl  35.4530   tau(    2) = (   -0.50000    0.50000    0.50000  )

     Computing dynamical matrix for
                    q = (   0.0000000   0.0000000   0.0000000 )

     49 Sym.Ops. (with q -> -q+G )

     G cutoff =  521.1093  (   1240 G-vectors)     FFT grid: ( 36, 36, 36)
     number of k points=    16

     PseudoPot. # 1 for Na read from file:
     ./Na.pbe-spn-rrkjus_psl.0.2.UPF
     MD5 check sum: b0e5f2d4cf265b0390610ee3cf05b128
     Pseudo is Ultrasoft, Zval =  9.0
     Generated using "atomic" code by A. Dal Corso  v.5.0.2 svn rev. 9415
     Using radial grid of 1121 points,  4 beta functions with:
                l(1) =   0
                l(2) =   0
                l(3) =   1
                l(4) =   1
     Q(r) pseudized with 0 coefficients

     PseudoPot. # 2 for Cl read from file:
     ./Cl.pbe-n-rrkjus_psl.0.1.UPF
     MD5 check sum: 7e659e26dc5ee4ec708db1e629ca6197
     Pseudo is Ultrasoft + core correction, Zval =  7.0
     Generated using "atomic" code by A. Dal Corso  v.5.0.2 svn rev. 9415
     Using radial grid of 1157 points,  4 beta functions with:
                l(1) =   0
                l(2) =   0
                l(3) =   1
                l(4) =   1
     Q(r) pseudized with 0 coefficients

     Mode symmetry, O_h (m-3m)  point group:

     Electric field:
     Dielectric constant
     Born effective charges in two ways

     Atomic displacements:
     There are   2 irreducible representations

     Representation     1      3 modes -T_1u G_15  G_4-  To be done

     Representation     2      3 modes -T_1u G_15  G_4-  To be done

     Alpha used in Ewald sum =   1.8000

     Electric Fields Calculation

      thresh= 1.000E-02 alpha_mix =  0.700 |ddv_scf|^2 =  9.042E-08

[...]

     End of electric fields calculation

          Dielectric constant in cartesian axis

          (       2.490059398       0.000000000       0.000000000 )
          (       0.000000000       2.490059398      -0.000000000 )
          (       0.000000000      -0.000000000       2.490059398 )

          Effective charges (d Force / dE) in cartesian axis

           atom      1   Na
      Ex  (        1.06061        0.00000        0.00000 )
      Ey  (        0.00000        1.06061        0.00000 )
      Ez  (        0.00000        0.00000        1.06061 )
           atom      2   Cl
      Ex  (       -1.10755        0.00000        0.00000 )
      Ey  (        0.00000       -1.10755       -0.00000 )
      Ez  (       -0.00000       -0.00000       -1.10755 )

     Representation #  1 modes #   1  2  3

     Self-consistent Calculation

[...]

     End of self-consistent calculation

     Convergence has been achieved

[...]

     Number of q in the star =    1
     List of q in the star:
          1   0.000000000   0.000000000   0.000000000

          Dielectric constant in cartesian axis

          (       2.490059398       0.000000000       0.000000000 )
          (       0.000000000       2.490059398      -0.000000000 )
          (       0.000000000      -0.000000000       2.490059398 )

          Effective charges (d Force / dE) in cartesian axis

[...]

          Effective charges (d P / du) in cartesian axis

           atom      1   Na
      Px  (        1.06035       -0.00000       -0.00000 )
      Py  (       -0.00000        1.06035        0.00000 )
      Pz  (       -0.00000        0.00000        1.06035 )
           atom      2   Cl
      Px  (       -1.09859       -0.00000       -0.00000 )
      Py  (       -0.00000       -1.09859        0.00000 )
      Pz  (       -0.00000        0.00000       -1.09859 )

     Diagonalizing the dynamical matrix

     q = (    0.000000000   0.000000000   0.000000000 )

     freq (    1) =      -0.739647 [THz] =     -24.671976 [cm-1]
     freq (    2) =      -0.739647 [THz] =     -24.671976 [cm-1]
     freq (    3) =      -0.739647 [THz] =     -24.671976 [cm-1]
     freq (    4) =       4.733958 [THz] =     157.907837 [cm-1]
     freq (    5) =       4.733958 [THz] =     157.907837 [cm-1]
     freq (    6) =       4.733958 [THz] =     157.907837 [cm-1]

     Mode symmetry, O_h (m-3m)  point group:

     freq (  1 -  3) =        -24.7  [cm-1]   --> T_1u G_15  G_4- I
     freq (  4 -  6) =        157.9  [cm-1]   --> T_1u G_15  G_4- I

[...]

     bravais-lattice index     =            2
     lattice parameter (alat)  =      10.6907  a.u.
     unit-cell volume          =     305.4669 (a.u.)^3
     number of atoms/cell      =            2
     number of atomic types    =            2
     number of electrons       =        16.00
     number of Kohn-Sham states=            8
     kinetic-energy cutoff     =      45.0000  Ry
     charge density cutoff     =     180.0000  Ry
     Exchange-correlation      = PBE ( 1  4  3  4 0 0)

[...]

     atomic species   valence    mass     pseudopotential
        Na             9.00    22.98977     Na( 1.00)
        Cl             7.00    35.45300     Cl( 1.00)

     48 Sym. Ops., with inversion, found

[...]

     site n.     atom                  positions (alat units)
         1           Na  tau(   1) = (   0.0000000   0.0000000   0.0000000  )
         2           Cl  tau(   2) = (  -0.5000000   0.5000000   0.5000000  )

     number of k points=   112

     Number of k-points >= 100: set verbosity='high' to print them.

[...]

     The potential is recalculated from file :
     ./_ph0/nacl.save/charge-density.dat

     Starting wfc are   12 atomic wfcs

     Band Structure Calculation
     Davidson diagonalization with overlap

     ethr =  6.25E-11,  avg # of iterations = 16.5

     End of band structure calculation

     Number of k-points >= 100: set verbosity='high' to print the bands.

     highest occupied level (ev):     0.9690

     Writing output data file nacl.save

[...]

      6 Sym.Ops. (no q -> -q+G )

[...]

     Mode symmetry, C_3v (3m)   point group:

[...]

     Representation     1      1 modes -A_1  L_1  To be done

     Representation     2      1 modes -A_1  L_1  To be done

     Representation     3      2 modes -E    L_3  To be done

     Representation     4      2 modes -E    L_3  To be done

[...]

     Representation #  1 mode #   1

[...]

     Mode symmetry, C_3v (3m)   point group:

     freq (  1 -  2) =         64.1  [cm-1]   --> E    L_3
     freq (  3 -  3) =        105.4  [cm-1]   --> A_1  L_1
     freq (  4 -  5) =        149.7  [cm-1]   --> E    L_3
     freq (  6 -  6) =        238.8  [cm-1]   --> A_1  L_1

[...]

     number of k points=    64
                       cart. coord. in units 2pi/alat
        k(    1) = (   0.0000000   0.0000000   0.0000000), wk =   0.0092593
        k(    2) = (   0.5000000  -0.5000000   0.5000000), wk =   0.0000000
        k(    3) = (  -0.1666667   0.1666667  -0.1666667), wk =   0.0185185
        k(    4) = (   0.3333333  -0.3333333   0.3333333), wk =   0.0000000
        k(    5) = (  -0.3333333   0.3333333  -0.3333333), wk =   0.0185185
        k(    6) = (   0.1666667  -0.1666667   0.1666667), wk =   0.0000000
        k(    7) = (   0.5000000  -0.5000000   0.5000000), wk =   0.0092593
        k(    8) = (   1.0000000  -1.0000000   1.0000000), wk =   0.0000000
        k(    9) = (   0.0000000   0.3333333   0.0000000), wk =   0.0555556
        k(   10) = (   0.5000000  -0.1666667   0.5000000), wk =   0.0000000
        k(   11) = (  -0.1666667   0.5000000  -0.1666667), wk =   0.0555556
        k(   12) = (   0.3333333   0.0000000   0.3333333), wk =   0.0000000
        k(   13) = (   0.6666667  -0.3333333   0.6666667), wk =   0.0555556
        k(   14) = (   1.1666667  -0.8333333   1.1666667), wk =   0.0000000
        k(   15) = (   0.5000000  -0.1666667   0.5000000), wk =   0.0555556
        k(   16) = (   1.0000000  -0.6666667   1.0000000), wk =   0.0000000
        k(   17) = (   0.3333333   0.0000000   0.3333333), wk =   0.0555556
        k(   18) = (   0.8333333  -0.5000000   0.8333333), wk =   0.0000000
        k(   19) = (   0.0000000   0.6666667   0.0000000), wk =   0.0555556
        k(   20) = (   0.5000000   0.1666667   0.5000000), wk =   0.0000000
        k(   21) = (   0.8333333  -0.1666667   0.8333333), wk =   0.0555556
        k(   22) = (   1.3333333  -0.6666667   1.3333333), wk =   0.0000000
        k(   23) = (   0.6666667  -0.0000000   0.6666667), wk =   0.0555556
        k(   24) = (   1.1666667  -0.5000000   1.1666667), wk =   0.0000000
        k(   25) = (   0.0000000  -1.0000000   0.0000000), wk =   0.0277778
        k(   26) = (   0.5000000  -1.5000000   0.5000000), wk =   0.0000000
        k(   27) = (   0.6666667  -0.3333333   1.0000000), wk =   0.1111111
        k(   28) = (   1.1666667  -0.8333333   1.5000000), wk =   0.0000000
        k(   29) = (   0.5000000  -0.1666667   0.8333333), wk =   0.0555556
[...]
        k(   46) = (  -0.1666667  -0.1666667   1.1666667), wk =   0.0000000
        k(   47) = (   0.5000000   0.1666667   0.5000000), wk =   0.0555556
        k(   48) = (   1.0000000  -0.3333333   1.0000000), wk =   0.0000000
        k(   49) = (  -0.5000000   0.1666667   0.5000000), wk =   0.1111111
        k(   50) = (   0.0000000  -0.3333333   1.0000000), wk =   0.0000000
        k(   51) = (  -0.3333333   0.0000000   0.3333333), wk =   0.0555556
        k(   52) = (   0.1666667  -0.5000000   0.8333333), wk =   0.0000000
        k(   53) = (   0.8333333   0.1666667   0.8333333), wk =   0.0555556
        k(   54) = (   1.3333333  -0.3333333   1.3333333), wk =   0.0000000
        k(   55) = (  -0.8333333   0.1666667   0.8333333), wk =   0.1111111
        k(   56) = (  -0.3333333  -0.3333333   1.3333333), wk =   0.0000000
        k(   57) = (  -0.6666667   0.0000000   0.6666667), wk =   0.0555556
        k(   58) = (  -0.1666667  -0.5000000   1.1666667), wk =   0.0000000
        k(   59) = (   0.6666667   0.3333333   1.0000000), wk =   0.1111111
        k(   60) = (   1.1666667  -0.1666667   1.5000000), wk =   0.0000000
        k(   61) = (   0.5000000   0.1666667   0.8333333), wk =   0.1111111
        k(   62) = (   1.0000000  -0.3333333   1.3333333), wk =   0.0000000
        k(   63) = (  -0.8333333   0.1666667   0.5000000), wk =   0.0555556
        k(   64) = (  -0.3333333  -0.3333333   1.0000000), wk =   0.0000000

[...]

          k = 0.0000 0.0000 0.0000 (  1471 PWs)   bands (ev):

   -47.9842 -19.9018 -19.9018 -19.9018 -11.6648   0.9690   0.9690   0.9690

[...]

          k =-0.1667 0.1667-0.1667 (  1537 PWs)   bands (ev):

[...]

     Mode symmetry, D_3d (-3m)  point group:

[...]

     Representation     1      1 modes -A_1g L_1  To be done

     Representation     2      2 modes -E_g  L_3  To be done

     Representation     3      1 modes -A_2u L_2'  To be done

     Representation     4      2 modes -E_u  L_3'  To be done

[...]

     freq (  1 -  2) =        108.1  [cm-1]   --> E_g  L_3
     freq (  3 -  4) =        131.4  [cm-1]   --> E_u  L_3'
     freq (  5 -  5) =        173.7  [cm-1]   --> A_1g L_1
     freq (  6 -  6) =        213.3  [cm-1]   --> A_2u L_2'

[...]

     Mode symmetry, C_4v (4mm)  point group:

[...]

     Representation     1      1 modes -A_1  G_1 D_1  To be done

[...]

     Representation     3      2 modes -E    G_5 D_5  To be done

[...]

     Mode symmetry, C_4v (4mm)  point group:

     freq (  1 -  2) =         56.8  [cm-1]   --> E    G_5 D_5
     freq (  3 -  3) =        128.1  [cm-1]   --> A_1  G_1 D_1
     freq (  4 -  5) =        162.4  [cm-1]   --> E    G_5 D_5
     freq (  6 -  6) =        201.6  [cm-1]   --> A_1  G_1 D_1

[...]

     Mode symmetry, C_s (m)     point group:

[...]

     Representation     1      1 modes -A'  To be done

[...]

     Representation     4      1 modes -A'  To be done

     Representation     5      1 modes -A''  To be done

     Representation     6      1 modes -A''  To be done

[...]

     Mode symmetry, C_s (m)     point group:

     freq (  1 -  1) =         90.5  [cm-1]   --> A''
     freq (  2 -  2) =        122.4  [cm-1]   --> A'
     freq (  3 -  3) =        134.6  [cm-1]   --> A'
     freq (  4 -  4) =        154.1  [cm-1]   --> A''
     freq (  5 -  5) =        170.7  [cm-1]   --> A'
     freq (  6 -  6) =        187.8  [cm-1]   --> A'

[...]

     number of k points=   150

     Number of k-points >= 100: set verbosity='high' to print them.

[...]

     Number of k-points >= 100: set verbosity='high' to print the bands.

[...]

     Mode symmetry, C_2v (mm2)  point group:

[...]

     Mode symmetry, C_2v (mm2)  point group:

     freq (  1 -  1) =         93.3  [cm-1]   --> B_2  D_4  S_4
     freq (  2 -  2) =        106.8  [cm-1]   --> B_1  D_3  S_3
     freq (  3 -  3) =        131.7  [cm-1]   --> B_1  D_3  S_3
     freq (  4 -  4) =        148.7  [cm-1]   --> A_1  D_1  S_1
     freq (  5 -  5) =        168.8  [cm-1]   --> B_2  D_4  S_4
     freq (  6 -  6) =        198.7  [cm-1]   --> A_1  D_1  S_1

[...]

     17 Sym.Ops. (with q -> -q+G )

[...]

     Mode symmetry, D_4h(4/mmm) point group:

[...]

     Representation     1      1 modes -A_2u X_4' M_4'  To be done

     Representation     2      1 modes -A_2u X_4' M_4'  To be done

     Representation     3      2 modes -E_u  X_5' M_5'  To be done

     Representation     4      2 modes -E_u  X_5' M_5'  To be done

[...]

     Mode symmetry, D_4h(4/mmm) point group:

     freq (  1 -  2) =         83.2  [cm-1]   --> E_u  X_5' M_5'
     freq (  3 -  3) =        138.2  [cm-1]   --> A_2u X_4' M_4'
     freq (  4 -  5) =        168.4  [cm-1]   --> E_u  X_5' M_5'
     freq (  6 -  6) =        182.9  [cm-1]   --> A_2u X_4' M_4'

     Calculation of q =   -0.5000000  -1.0000000   0.0000000

[...]

   Info: using nr1, nr2, nr3 values from input

     bravais-lattice index     =            2
     lattice parameter (alat)  =      10.6907  a.u.
     unit-cell volume          =     305.4669 (a.u.)^3
     number of atoms/cell      =            2
     number of atomic types    =            2
     number of electrons       =        16.00
     number of Kohn-Sham states=            8
     kinetic-energy cutoff     =      45.0000  Ry
     charge density cutoff     =     180.0000  Ry
     Exchange-correlation      = PBE ( 1  4  3  4 0 0)

[...]

     atomic species   valence    mass     pseudopotential
        Na             9.00    22.98977     Na( 1.00)
        Cl             7.00    35.45300     Cl( 1.00)

     48 Sym. Ops., with inversion, found

[...]

     site n.     atom                  positions (alat units)
         1           Na  tau(   1) = (   0.0000000   0.0000000   0.0000000  )
         2           Cl  tau(   2) = (  -0.5000000   0.5000000   0.5000000  )

     number of k points=    82
                       cart. coord. in units 2pi/alat
        k(    1) = (   0.0000000   0.0000000   0.0000000), wk =   0.0092593
        k(    2) = (  -0.5000000  -1.0000000   0.0000000), wk =   0.0000000
        k(    3) = (  -0.1666667   0.1666667  -0.1666667), wk =   0.0740741
        k(    4) = (  -0.6666667  -0.8333333  -0.1666667), wk =   0.0000000
        k(    5) = (  -0.3333333   0.3333333  -0.3333333), wk =   0.0740741
        k(    6) = (  -0.8333333  -0.6666667  -0.3333333), wk =   0.0000000
        k(    7) = (   0.5000000  -0.5000000   0.5000000), wk =   0.0370370
        k(    8) = (   0.0000000  -1.5000000   0.5000000), wk =   0.0000000
        k(    9) = (   0.0000000   0.3333333   0.0000000), wk =   0.0370370
        k(   10) = (  -0.5000000  -0.6666667   0.0000000), wk =   0.0000000
        k(   11) = (  -0.1666667   0.5000000  -0.1666667), wk =   0.0740741
        k(   12) = (  -0.6666667  -0.5000000  -0.1666667), wk =   0.0000000
        k(   13) = (   0.6666667  -0.3333333   0.6666667), wk =   0.0740741
        k(   14) = (   0.1666667  -1.3333333   0.6666667), wk =   0.0000000
        k(   15) = (   0.5000000  -0.1666667   0.5000000), wk =   0.0740741
        k(   16) = (   0.0000000  -1.1666667   0.5000000), wk =   0.0000000
        k(   17) = (   0.3333333   0.0000000   0.3333333), wk =   0.0370370
        k(   18) = (  -0.1666667  -1.0000000   0.3333333), wk =   0.0000000
        k(   19) = (   0.0000000   0.6666667   0.0000000), wk =   0.0370370
        k(   20) = (  -0.5000000  -0.3333333   0.0000000), wk =   0.0000000
        k(   21) = (   0.8333333  -0.1666667   0.8333333), wk =   0.0740741
        k(   22) = (   0.3333333  -1.1666667   0.8333333), wk =   0.0000000
        k(   23) = (   0.6666667  -0.0000000   0.6666667), wk =   0.0370370
        k(   24) = (   0.1666667  -1.0000000   0.6666667), wk =   0.0000000
        k(   25) = (   0.0000000  -1.0000000   0.0000000), wk =   0.0185185
        k(   26) = (  -0.5000000  -2.0000000   0.0000000), wk =   0.0000000
        k(   27) = (   0.6666667  -0.3333333   1.0000000), wk =   0.0370370
        k(   28) = (   0.1666667  -1.3333333   1.0000000), wk =   0.0000000
        k(   29) = (   0.5000000  -0.1666667   0.8333333), wk =   0.0370370
        k(   30) = (   0.0000000  -1.1666667   0.8333333), wk =   0.0000000
        k(   31) = (  -0.3333333  -1.0000000   0.0000000), wk =   0.0185185
        k(   32) = (  -0.8333333  -2.0000000   0.0000000), wk =   0.0000000
        k(   33) = (   0.3333333   0.0000000   0.0000000), wk =   0.0185185
        k(   34) = (  -0.1666667  -1.0000000   0.0000000), wk =   0.0000000
        k(   35) = (   0.1666667  -0.5000000   0.1666667), wk =   0.0740741
        k(   36) = (  -0.3333333  -1.5000000   0.1666667), wk =   0.0000000
        k(   37) = (   0.5000000  -0.1666667  -0.1666667), wk =   0.0740741
        k(   38) = (   0.0000000  -1.1666667  -0.1666667), wk =   0.0000000
        k(   39) = (  -0.6666667   0.3333333  -0.6666667), wk =   0.0740741
        k(   40) = (  -1.1666667  -0.6666667  -0.6666667), wk =   0.0000000
        k(   41) = (  -0.3333333   0.6666667   0.6666667), wk =   0.0740741
        k(   42) = (  -0.8333333  -0.3333333   0.6666667), wk =   0.0000000
        k(   43) = (  -0.5000000   0.1666667  -0.5000000), wk =   0.0740741
        k(   44) = (  -1.0000000  -0.8333333  -0.5000000), wk =   0.0000000
        k(   45) = (  -0.1666667   0.5000000   0.5000000), wk =   0.0740741
        k(   46) = (  -0.6666667  -0.5000000   0.5000000), wk =   0.0000000
        k(   47) = (  -0.3333333   0.0000000  -0.3333333), wk =   0.0370370
        k(   48) = (  -0.8333333  -1.0000000  -0.3333333), wk =   0.0000000
        k(   49) = (   0.0000000   0.3333333   0.3333333), wk =   0.0370370
        k(   50) = (  -0.5000000  -0.6666667   0.3333333), wk =   0.0000000
        k(   51) = (   0.6666667   0.0000000   0.0000000), wk =   0.0185185
        k(   52) = (   0.1666667  -1.0000000   0.0000000), wk =   0.0000000
        k(   53) = (  -0.8333333   0.1666667  -0.8333333), wk =   0.0740741
        k(   54) = (  -1.3333333  -0.8333333  -0.8333333), wk =   0.0000000
        k(   55) = (  -0.1666667   0.8333333   0.8333333), wk =   0.0740741
        k(   56) = (  -0.6666667  -0.1666667   0.8333333), wk =   0.0000000
        k(   57) = (  -0.6666667   0.0000000  -0.6666667), wk =   0.0370370
        k(   58) = (  -1.1666667  -1.0000000  -0.6666667), wk =   0.0000000
        k(   59) = (   0.0000000   0.6666667   0.6666667), wk =   0.0370370
        k(   60) = (  -0.5000000  -0.3333333   0.6666667), wk =   0.0000000
[...]
        k(   68) = (  -0.8333333   0.0000000   0.6666667), wk =   0.0000000
        k(   69) = (   0.3333333   1.0000000  -0.6666667), wk =   0.0370370
        k(   70) = (  -0.1666667   0.0000000  -0.6666667), wk =   0.0000000
        k(   71) = (  -0.8333333   0.1666667  -0.5000000), wk =   0.0740741
        k(   72) = (  -1.3333333  -0.8333333  -0.5000000), wk =   0.0000000
        k(   73) = (   0.8333333  -0.1666667   0.5000000), wk =   0.0740741
        k(   74) = (   0.3333333  -1.1666667   0.5000000), wk =   0.0000000
        k(   75) = (  -0.5000000   0.1666667   0.8333333), wk =   0.0370370
        k(   76) = (  -1.0000000  -0.8333333   0.8333333), wk =   0.0000000
        k(   77) = (   0.0000000   1.0000000   0.3333333), wk =   0.0370370
        k(   78) = (  -0.5000000   0.0000000   0.3333333), wk =   0.0000000
        k(   79) = (   0.3333333   1.0000000   0.0000000), wk =   0.0185185
        k(   80) = (  -0.1666667   0.0000000   0.0000000), wk =   0.0000000
        k(   81) = (  -1.0000000   0.0000000  -0.3333333), wk =   0.0370370
        k(   82) = (  -1.5000000  -1.0000000  -0.3333333), wk =   0.0000000

     Check: negative/imaginary core charge=   -0.000019    0.000000

     The potential is recalculated from file :
     ./_ph0/nacl.save/charge-density.dat

     Starting wfc are   12 atomic wfcs

     Band Structure Calculation
     Davidson diagonalization with overlap

     ethr =  6.25E-11,  avg # of iterations = 15.9

     End of band structure calculation

[...]

          k = 0.3333 1.0000 0.0000 (  1558 PWs)   bands (ev):

[...]

          k =-1.5000-1.0000-0.3333 (  1559 PWs)   bands (ev):

   -47.9834 -19.9206 -19.9129 -19.9057 -11.3139  -0.4491  -0.0091   0.5809

     highest occupied level (ev):     0.9690

     Writing output data file nacl.save

     bravais-lattice index     =            2
     lattice parameter (alat)  =      10.6907  a.u.
     unit-cell volume          =     305.4669 (a.u.)^3
     number of atoms/cell      =            2
     number of atomic types    =            2
     kinetic-energy cut-off    =      45.0000  Ry
     charge density cut-off    =     180.0000  Ry
     convergence threshold     =      1.0E-14
     beta                      =       0.7000
     number of iterations used =            4
     Exchange-correlation      = PBE ( 1  4  3  4 0 0)

     celldm(1)=   10.69075  celldm(2)=    0.00000  celldm(3)=    0.00000
     celldm(4)=    0.00000  celldm(5)=    0.00000  celldm(6)=    0.00000

     crystal axes: (cart. coord. in units of alat)
               a(1) = ( -0.5000  0.0000  0.5000 )
               a(2) = (  0.0000  0.5000  0.5000 )
               a(3) = ( -0.5000  0.5000  0.0000 )

     reciprocal axes: (cart. coord. in units 2 pi/alat)
               b(1) = ( -1.0000 -1.0000  1.0000 )
               b(2) = (  1.0000  1.0000  1.0000 )
               b(3) = ( -1.0000  1.0000 -1.0000 )

     Atoms inside the unit cell:

     Cartesian axes

     site n.  atom      mass           positions (alat units)
        1     Na  22.9898   tau(    1) = (    0.00000    0.00000    0.00000  )
        2     Cl  35.4530   tau(    2) = (   -0.50000    0.50000    0.50000  )

     Computing dynamical matrix for
                    q = (  -0.5000000  -1.0000000   0.0000000 )

      8 Sym.Ops. (no q -> -q+G )

     G cutoff =  521.1093  (   1240 G-vectors)     FFT grid: ( 36, 36, 36)
     number of k points=    82

     PseudoPot. # 1 for Na read from file:
     ./Na.pbe-spn-rrkjus_psl.0.2.UPF
     MD5 check sum: b0e5f2d4cf265b0390610ee3cf05b128
     Pseudo is Ultrasoft, Zval =  9.0
     Generated using "atomic" code by A. Dal Corso  v.5.0.2 svn rev. 9415
     Using radial grid of 1121 points,  4 beta functions with:
                l(1) =   0
                l(2) =   0
                l(3) =   1
                l(4) =   1
     Q(r) pseudized with 0 coefficients

     PseudoPot. # 2 for Cl read from file:
     ./Cl.pbe-n-rrkjus_psl.0.1.UPF
     MD5 check sum: 7e659e26dc5ee4ec708db1e629ca6197
     Pseudo is Ultrasoft + core correction, Zval =  7.0
     Generated using "atomic" code by A. Dal Corso  v.5.0.2 svn rev. 9415
     Using radial grid of 1157 points,  4 beta functions with:
                l(1) =   0
                l(2) =   0
                l(3) =   1
                l(4) =   1
     Q(r) pseudized with 0 coefficients

[...]

     Atomic displacements:
     There are   4 irreducible representations

[...]

     Representation     2      1 modes -B_2  X_3  W_2  To be done

[...]

     Representation     4      2 modes -E    X_5  W_3  To be done

     Alpha used in Ewald sum =   1.8000

[...]

     Representation #  2 mode #   2

[...]

     Representation #  4 modes #   5  6

     Self-consistent Calculation

[...]

      thresh= 4.995E-08 alpha_mix =  0.700 |ddv_scf|^2 =  4.716E-15

     End of self-consistent calculation

     Convergence has been achieved

     Number of q in the star =    6
     List of q in the star:
          1  -0.500000000  -1.000000000   0.000000000
          2   0.000000000   1.000000000   0.500000000
          3   0.000000000  -1.000000000  -0.500000000
          4   0.500000000   1.000000000   0.000000000
          5  -1.000000000  -0.500000000   0.000000000
          6   0.000000000  -0.500000000  -1.000000000

     Diagonalizing the dynamical matrix

     q = (   -0.500000000  -1.000000000   0.000000000 )

     freq (    1) =       3.521429 [THz] =     117.462222 [cm-1]
     freq (    2) =       3.521429 [THz] =     117.462222 [cm-1]
     freq (    3) =       3.987202 [THz] =     132.998735 [cm-1]
     freq (    4) =       4.528007 [THz] =     151.038040 [cm-1]
     freq (    5) =       5.256701 [THz] =     175.344681 [cm-1]
     freq (    6) =       5.256701 [THz] =     175.344681 [cm-1]

     Mode symmetry, D_2d (-42m) point group:

     freq (  1 -  2) =        117.5  [cm-1]   --> E    X_5  W_3
     freq (  3 -  3) =        133.0  [cm-1]   --> A_1  X_1  W_1
     freq (  4 -  4) =        151.0  [cm-1]   --> B_2  X_3  W_2
     freq (  5 -  6) =        175.3  [cm-1]   --> E    X_5  W_3

     General routines

     Parallel routines

     INITIALIZATION:

     DYNAMICAL MATRIX:

      General routines

   This run was terminated on:  21:54:22  29Jul2020

   JOB DONE.