     Program PHONON v.6.0 (svn rev. 13079) starts on 29Jul2020 at 20:36:28

     Reading data from directory:
     ./wavefunctions/nacl.save

   Info: using nr1, nr2, nr3 values from input

   Info: using nr1, nr2, nr3 values from input

     IMPORTANT: XC functional enforced from input :
     Exchange-correlation      = PBE ( 1  4  3  4 0 0)
     Any further DFT definition will be discarded
     Please, verify this is what you really want

               file Cl.pbe-n-rrkjus_psl.0.1.UPF: wavefunction(s)  3S renormalized

     Check: negative/imaginary core charge=   -0.000019    0.000000

     Calculation of q =    0.0000000   0.0000000   0.0000000

     bravais-lattice index     =            2
     lattice parameter (alat)  =      10.6907  a.u.
     unit-cell volume          =     305.4669 (a.u.)^3
     number of atoms/cell      =            2
     number of atomic types    =            2
     kinetic-energy cut-off    =      45.0000  Ry
     charge density cut-off    =     180.0000  Ry
     convergence threshold     =      1.0E-14
     beta                      =       0.7000
     number of iterations used =            4
     Exchange-correlation      = PBE ( 1  4  3  4 0 0)

     celldm(1)=   10.69075  celldm(2)=    0.00000  celldm(3)=    0.00000
     celldm(4)=    0.00000  celldm(5)=    0.00000  celldm(6)=    0.00000

     crystal axes: (cart. coord. in units of alat)
               a(1) = ( -0.5000  0.0000  0.5000 )
               a(2) = (  0.0000  0.5000  0.5000 )
               a(3) = ( -0.5000  0.5000  0.0000 )

     reciprocal axes: (cart. coord. in units 2 pi/alat)
               b(1) = ( -1.0000 -1.0000  1.0000 )
               b(2) = (  1.0000  1.0000  1.0000 )
               b(3) = ( -1.0000  1.0000 -1.0000 )

     Atoms inside the unit cell:

     Cartesian axes

     site n.  atom      mass           positions (alat units)
        1     Na  22.9898   tau(    1) = (    0.00000    0.00000    0.00000  )
        2     Cl  35.4530   tau(    2) = (   -0.50000    0.50000    0.50000  )

     Computing dynamical matrix for
                    q = (   0.0000000   0.0000000   0.0000000 )

     49 Sym.Ops. (with q -> -q+G )

     G cutoff =  521.1093  (   1240 G-vectors)     FFT grid: ( 36, 36, 36)
     number of k points=    16
                       cart. coord. in units 2pi/alat
        k(    1) = (   0.0000000   0.0000000   0.0000000), wk =   0.0092593
        k(    2) = (  -0.1666667   0.1666667  -0.1666667), wk =   0.0740741
        k(    3) = (  -0.3333333   0.3333333  -0.3333333), wk =   0.0740741
        k(    4) = (   0.5000000  -0.5000000   0.5000000), wk =   0.0370370
        k(    5) = (   0.0000000   0.3333333   0.0000000), wk =   0.0555556
        k(    6) = (  -0.1666667   0.5000000  -0.1666667), wk =   0.2222222
        k(    7) = (   0.6666667  -0.3333333   0.6666667), wk =   0.2222222
        k(    8) = (   0.5000000  -0.1666667   0.5000000), wk =   0.2222222
        k(    9) = (   0.3333333   0.0000000   0.3333333), wk =   0.1111111
        k(   10) = (   0.0000000   0.6666667   0.0000000), wk =   0.0555556
        k(   11) = (   0.8333333  -0.1666667   0.8333333), wk =   0.2222222
        k(   12) = (   0.6666667  -0.0000000   0.6666667), wk =   0.1111111
        k(   13) = (   0.0000000  -1.0000000   0.0000000), wk =   0.0277778
        k(   14) = (   0.6666667  -0.3333333   1.0000000), wk =   0.2222222
        k(   15) = (   0.5000000  -0.1666667   0.8333333), wk =   0.2222222
        k(   16) = (  -0.3333333  -1.0000000   0.0000000), wk =   0.1111111

     PseudoPot. # 1 for Na read from file:
     ./Na.pbe-spn-rrkjus_psl.0.2.UPF
     MD5 check sum: b0e5f2d4cf265b0390610ee3cf05b128
     Pseudo is Ultrasoft, Zval =  9.0
     Generated using "atomic" code by A. Dal Corso  v.5.0.2 svn rev. 9415
     Using radial grid of 1121 points,  4 beta functions with:
                l(1) =   0
                l(2) =   0
                l(3) =   1
                l(4) =   1
     Q(r) pseudized with 0 coefficients

     PseudoPot. # 2 for Cl read from file:
     ./Cl.pbe-n-rrkjus_psl.0.1.UPF
     MD5 check sum: 7e659e26dc5ee4ec708db1e629ca6197
     Pseudo is Ultrasoft + core correction, Zval =  7.0
     Generated using "atomic" code by A. Dal Corso  v.5.0.2 svn rev. 9415
     Using radial grid of 1157 points,  4 beta functions with:
                l(1) =   0
                l(2) =   0
                l(3) =   1
                l(4) =   1
     Q(r) pseudized with 0 coefficients

     Mode symmetry, O_h (m-3m)  point group:

     Atomic displacements:
     There are   2 irreducible representations

     Representation     1      3 modes -T_1u G_15  G_4-  To be done

     Representation     2      3 modes -T_1u G_15  G_4-  To be done

     Alpha used in Ewald sum =   1.8000

     Representation #  1 modes #   1  2  3

     Self-consistent Calculation

      thresh= 1.000E-02 alpha_mix =  0.700 |ddv_scf|^2 =  3.639E-07

[...]

     End of self-consistent calculation

     Convergence has been achieved

     Representation #  2 modes #   4  5  6

     Self-consistent Calculation

[...]

      thresh= 7.732E-08 alpha_mix =  0.700 |ddv_scf|^2 =  1.887E-15

     End of self-consistent calculation

     Convergence has been achieved

     Number of q in the star =    1
     List of q in the star:
          1   0.000000000   0.000000000   0.000000000

     Diagonalizing the dynamical matrix

     q = (    0.000000000   0.000000000   0.000000000 )

     freq (    1) =      -0.739673 [THz] =     -24.672838 [cm-1]
     freq (    2) =      -0.739673 [THz] =     -24.672838 [cm-1]
     freq (    3) =      -0.739673 [THz] =     -24.672838 [cm-1]
     freq (    4) =       4.733952 [THz] =     157.907651 [cm-1]
     freq (    5) =       4.733952 [THz] =     157.907651 [cm-1]
     freq (    6) =       4.733952 [THz] =     157.907651 [cm-1]

     Mode symmetry, O_h (m-3m)  point group:

     freq (  1 -  3) =        -24.7  [cm-1]   --> T_1u G_15  G_4- I
     freq (  4 -  6) =        157.9  [cm-1]   --> T_1u G_15  G_4- I

     INITIALIZATION:

     DYNAMICAL MATRIX:

      General routines

   This run was terminated on:  20:37: 3  29Jul2020

   JOB DONE.